 # Version information for this restart file 
 # current date 2022-11-29 17:45:24.269
 # current working dir /scratch/work/courses/CHEM-GA-2671-2022fa/sl9736/comp-lab-class/Week12/Runs/Proton
 # Program compiled at                              Sat Dec 12 18:27:15 EST 2020
 # Program compiled on                                         cs001.nyu.cluster
 # Program compiled for                                                nyu-intel
 # Source code revision number                                       git:8c64c6e
 &GLOBAL
   PRINT_LEVEL  LOW
   PROJECT_NAME proton_aimd_1ns_every0.5fs
   RUN_TYPE  MD
   WALLTIME 21600
 &END GLOBAL
 &MOTION
   &GEO_OPT
     OPTIMIZER  BFGS
     MAX_ITER  100
     MAX_DR     3.0000000000000001E-03
     &BFGS
     &END BFGS
   &END GEO_OPT
   &MD
     ENSEMBLE  NVT
     STEPS  2000
     TIMESTEP     4.9999999999999994E-01
     STEP_START_VAL  500
     TIME_START_VAL     2.4999999999999795E+02
     ECONS_START_VAL    -1.1027506064962838E+03
     TEMPERATURE     3.0000000000000000E+02
     &THERMOSTAT
       TYPE  GLE
       REGION  MASSIVE
       &GLE
         NDIM  5
         A_SCALE     1.0000000000000000E+00
         A_LIST     1.8595758612559999E+02    2.7263853498399998E-01    1.1526100454610001E+01   -3.6414578262600003E+01 \
             2.3173375816020001E+02
         A_LIST    -2.7809524712060002E-01    8.5951591808710006E-05    7.2189048017650004E-01   -1.9844539343859999E-01 \
             4.2409257583420001E-01
         A_LIST    -1.4825808131210000E+01   -7.2189048017650004E-01    1.3590902121280000E+00    5.1498896280349999E+00 \
            -9.9949268450990001E+00
         A_LIST    -1.0372189126880000E+01    1.9844539343859999E-01   -5.1498896280349999E+00    2.6661910891169999E+01 \
             1.1507715495310000E+01
         A_LIST     2.1801346360420001E+02   -4.2409257583420001E-01    9.9949268450990001E+00   -1.1507715495310000E+01 \
             3.0958394565589998E+02
         &THERMOSTAT_ENERGY
              -4.9771697369371138E-03
              -3.6420711915554911E-04
              -1.4788562659112552E-03
               1.5866079472742903E-03
              -7.0343181533229640E-03
               8.8962523414864315E-03
              -3.9617842581413038E-03
              -1.3890299288795245E-03
               3.3522069843518365E-03
               1.2727854277047015E-03
               6.2099424371821910E-03
              -3.3927048751006654E-03
               2.2160941739980630E-03
              -4.6281563668272840E-04
              -1.6842278017901585E-03
              -1.9649539070948465E-03
               3.3380147407513902E-03
              -4.2034991351129055E-03
               4.3707767923514274E-03
              -2.0794913980055258E-03
               1.1519920344267209E-03
              -1.4310677547769860E-03
              -3.1753153537525418E-03
               2.9357945653747425E-03
               7.9385515269524099E-04
              -3.5718527386845883E-03
              -9.8311403522002307E-04
               2.3111477771597267E-03
               5.0965838883804018E-04
              -2.1830553190703011E-03
              -1.7322290934426378E-03
               2.7825841643334644E-04
               1.4641625634622150E-04
               2.8319374656362623E-03
              -3.4839356872382668E-03
               4.8687907067585150E-03
              -1.5183555043109722E-03
              -1.0906285894694861E-04
               9.8099538728391644E-04
              -3.4554850349715355E-03
               3.6698906111077954E-04
              -1.8314664984982174E-03
               1.1460014554467593E-03
               2.4666427788726762E-03
              -6.0797675743434528E-03
               2.6685658309383202E-03
              -2.5941055084671802E-04
               4.5201576712365658E-03
              -2.4129966324950652E-03
              -1.5832272273397124E-03
               2.0070144904722345E-03
              -6.9807843627751028E-03
              -3.5662652421404429E-05
               9.0780561317091845E-03
              -5.5395884824254622E-03
               2.3446455065668946E-03
              -1.3013614300992047E-03
              -2.7779055175509121E-03
               1.9666954736862843E-03
               3.4632085430947169E-03
               2.4543072094483794E-03
               1.9808811034451642E-03
               3.9193198025120665E-03
               4.0012282300273061E-03
              -2.0568692414284478E-03
              -2.0289037221319869E-03
              -6.5963373232316228E-03
               7.6362784512077611E-04
               4.4228864382599032E-03
               6.1622861413469059E-03
              -1.8966812504498433E-03
              -1.9808041424772688E-03
              -1.4105912912032031E-03
               1.9715382897989250E-03
              -2.8097338814004535E-03
              -5.3957120172144239E-03
               4.4694124659810488E-03
               2.4966969237923309E-03
               5.0015762746282054E-03
              -1.0513009323377964E-03
              -4.5845842228798665E-03
              -3.3931330232523364E-04
               1.7011236764679974E-03
              -2.8740936624638593E-03
               3.5185930152825794E-03
              -2.4612074539302552E-04
              -4.3645690573394756E-03
               1.3085921232702841E-03
               3.6734773698587709E-03
              -3.5674972588719228E-03
               3.4446707129319023E-03
              -4.6232808643504632E-03
               1.6930683222595892E-05
              -3.1001076827702357E-03
              -6.3695418459319879E-03
               2.6887116637030833E-03
               4.0911521812234510E-03
               2.0654017236088952E-03
               2.1053093596192490E-03
               3.0529016549460700E-05
              -3.6270606857261175E-04
              -4.0257622956037025E-03
              -1.0217984171319520E-03
              -1.1819452023893364E-03
               1.9056370134069400E-03
               5.4248148147336105E-03
               2.2760237098207062E-04
              -2.6654844345912923E-03
               4.7823761180574419E-03
              -3.5465375111667996E-03
               2.7235086886186924E-03
              -2.1264137271450288E-04
               5.5485469329823536E-04
               6.2707207157719990E-04
              -1.9082364604012473E-03
               1.0070794374476642E-02
              -1.4417599091527096E-02
               2.9201733031127600E-03
              -1.7353315709621102E-03
              -8.9292280915033505E-04
               6.3417061405478901E-03
              -2.0202042346744616E-03
              -1.1828377592683710E-03
              -3.2284090708777574E-03
              -1.1794792437918120E-03
               1.4528283545025963E-03
              -8.4156313869872485E-04
               2.6610826287187866E-03
               4.9704649576814072E-03
               3.2295880762615841E-03
               3.4938862752687005E-04
               3.6795890660789606E-04
              -5.0302097994413416E-04
               1.7760148433659229E-03
              -4.4496841662715770E-03
               8.0188451073574980E-04
              -3.2627721106775302E-03
              -3.9808123392787279E-04
               1.2148714954112857E-03
              -5.4215408651581941E-03
               6.7273485884584228E-03
               1.6442817400050031E-03
               1.9378274283807181E-03
              -1.4900281832841567E-03
              -1.9787510631549439E-03
              -3.2372152693430569E-03
               7.5208504867243153E-04
              -2.7994407812737929E-03
              -1.0788052302396910E-03
               7.0467571165874106E-03
              -3.4480354778620888E-03
               1.5663350316615435E-03
              -1.0751794476032308E-03
              -1.7018619183172088E-03
               2.8791702895698422E-04
              -1.4666046790801938E-03
               3.7575702959991336E-03
               2.6518761737950162E-03
              -2.1935877765113130E-03
               4.2345840104748879E-03
              -5.3123351053401928E-03
              -1.6205106099358795E-03
              -1.6573003111263898E-03
              -2.8754700784499432E-04
               5.3931428570444060E-03
               4.8087232222846915E-03
               4.5634873405935427E-03
              -5.2095618044479186E-03
              -5.2816545168656564E-03
               2.2077114654626487E-03
               4.2712589809124231E-04
               1.1534240312747839E-03
               7.5621701347051333E-04
               2.4706403683103953E-03
              -3.2812240184673202E-03
               4.2382015025304864E-03
               3.4060790714926037E-03
              -3.5413842671028895E-04
               1.8635870219102532E-03
               2.2899758585304139E-03
              -9.0269994327122250E-04
               2.4737376583784981E-03
               3.7219429452052333E-03
              -5.8257610331356778E-03
               1.4996187029016814E-03
              -2.6413346536347242E-04
              -2.0657682890996227E-03
               6.8150354443593649E-03
              -2.1677474900202724E-03
              -1.4433670613803280E-03
               3.6353515085207677E-04
              -2.5217714905821182E-03
               4.3166029893042818E-03
              -1.9455332968204098E-03
               2.4131213563265377E-04
              -4.2385234905218117E-03
               9.8648971141244144E-04
               4.3408849388478507E-04
               3.7153325017360741E-03
              -2.7145729811125763E-03
              -1.0717366636757671E-03
              -3.7001390685654145E-03
               3.7040113078904814E-03
              -8.4582407344057677E-04
              -5.5749640896049892E-03
              -6.3261258551945915E-04
              -2.5908545032775803E-03
               3.6322536090832976E-04
              -1.9654409358901151E-03
               3.6970680801446856E-03
              -1.8120562680311193E-03
              -8.3996253698483407E-04
               6.5255726649528631E-03
              -6.4348718040975429E-03
               1.0467160531207878E-02
              -1.2721523577647416E-03
              -2.5486180370731686E-03
               2.2719632668196765E-04
               4.6392978448109225E-04
              -2.2006853936686875E-03
               3.6736763893693413E-04
              -2.6768212473141191E-03
              -9.9746326372686161E-04
              -1.4012519187227084E-03
              -1.7629864779212976E-03
               1.7410737581728521E-03
               1.1266202607246058E-03
               6.1401651330124929E-03
              -4.8923532341085939E-03
               3.5983619092531832E-03
              -9.2311160539015440E-03
               5.3348922879374204E-03
               8.3871850374845104E-03
              -3.9692989831023127E-03
              -6.5696903454053241E-04
              -1.7467518440861256E-03
              -1.7589691211352591E-03
               1.8780249455882926E-03
               4.3446022696576308E-03
               1.2420279429342827E-03
              -1.1290079848269056E-03
              -1.8205685319279570E-03
               3.0700797854239462E-03
               4.0834708666757672E-03
              -3.5820113786084154E-03
               1.8468583215418668E-03
              -1.2127372170215038E-03
              -1.1929071641011068E-03
               9.7107332826652641E-04
              -3.7736937947902135E-03
               1.0662398054012141E-03
               1.2881313560823807E-03
              -2.3070747973840773E-03
              -1.7291852309695790E-03
               1.0823421367790363E-03
              -7.5962373763401835E-03
               5.6319410054357210E-03
               9.7498431638405353E-04
               6.0056511803794461E-04
              -5.9717878279602768E-03
               4.7609086332403268E-03
               1.8346231637591259E-03
               1.8386554108667421E-03
               2.5065235087466668E-03
               1.1470174958869124E-03
              -7.2628942304075348E-03
               2.2878155539853657E-04
               3.1746606458017902E-03
              -2.1243258756790230E-03
               3.0069020635030484E-03
              -2.7614293930257982E-03
              -2.3218366944421590E-03
               1.4531342831645723E-03
               3.5352822936828071E-03
               7.2206373248499475E-04
               5.6804305530599531E-04
              -8.3635400415948379E-03
               2.9473017919325662E-03
              -4.6808104873035756E-03
               2.2600096996754793E-03
              -1.4723014048164667E-03
               4.4692447644869631E-03
               3.0840019427346944E-03
              -3.5943312580551893E-03
              -3.6666306931202150E-03
               3.7005546355493922E-03
               2.0990835970033195E-03
              -5.9941333091162504E-03
              -1.4198783147432652E-03
               5.8558649784684813E-03
               1.3338846951752824E-03
               5.1928666761619415E-03
              -2.4148861444891609E-03
              -1.1465697942543822E-03
               2.6109955870334319E-03
               5.9533159097645554E-04
              -6.5024242747840867E-03
              -2.6700610828767038E-03
              -6.5109562774358327E-05
              -2.5205225592894996E-03
              -4.7621070780978561E-03
               5.9358171194780571E-03
               5.2951735342948846E-03
              -2.9791856803805072E-04
               2.8077993705161505E-03
              -6.4944777151568537E-04
              -1.9793028244580548E-03
               1.1459779428794037E-03
               4.4652105309298288E-04
               4.2182323867774587E-03
               7.1033448815805117E-04
              -9.9417358525103368E-03
               4.9650266112334076E-03
               5.0668484090467727E-03
               1.7905758341816428E-03
              -3.5735941592320573E-04
               9.9843726864339575E-04
               3.3229810492054657E-03
              -2.4584770896265446E-03
              -2.7478784518593707E-03
               8.6681663376198433E-03
              -1.3578389139716276E-03
              -7.5418644042901618E-03
               8.9437499319497266E-03
              -7.9511309078921194E-05
               3.4866002955028265E-03
               6.8783912638857082E-04
               3.9294774928300994E-03
              -2.2117060611606346E-03
              -3.5145394169690206E-03
              -1.4620873155620417E-03
              -7.9747280798152451E-03
               6.7023834023777632E-03
              -6.0007811819667997E-04
               2.1398442009864793E-03
              -2.0983618046908009E-03
               1.0823490722943056E-02
               2.0399747405112933E-03
              -2.1795509472349716E-03
              -5.0078103737749794E-03
               1.7175264476401691E-03
               2.8248218218387198E-03
               2.1666092246082269E-03
               1.1212590569865000E-03
              -1.1941456196092061E-03
              -6.2844102356625587E-03
               6.2711197635657847E-03
               6.8448773293250267E-04
               1.1586038962733527E-04
              -4.3193546760336961E-03
               2.2524818063039921E-03
               3.9563048823369777E-03
              -5.7561483143734604E-03
               1.8834119255824566E-03
              -1.0964038686087868E-03
               6.2635573688061309E-03
               2.5960505117140830E-04
              -3.0326312018105887E-03
              -3.3313673690395411E-03
               9.5483330239601559E-03
              -1.4892448356934851E-03
               3.4642459803314028E-04
              -4.9701862565139851E-03
              -8.1344257976186038E-03
               1.5849483884054836E-03
               1.2315973602607997E-02
               2.4707023050563456E-03
              -1.0833261845506206E-03
              -2.9068840607105514E-03
               9.0986185757747288E-04
               1.8214203594954751E-03
              -2.1296386050014549E-03
              -8.6396000653076090E-03
              -4.3696974387630472E-03
               5.6648134559832957E-03
              -3.1685175192076500E-03
               3.2404069328057189E-04
               6.1711743742841087E-03
              -2.5994838881584301E-03
              -3.8003371595318833E-04
              -1.6796492371891605E-03
               4.9561219116945549E-03
               1.0618615094815938E-02
              -9.9242050973643182E-04
              -1.2247901577828207E-02
               5.9115418612388634E-03
              -9.8886768326152401E-04
              -5.8682860727099079E-03
              -6.8981953087968759E-05
              -1.9804150432929579E-03
               2.7782292783504123E-03
               2.3184879421757477E-03
               1.5344433601079254E-03
               2.5185940257983412E-03
              -3.5851176734372201E-03
              -2.5648998275546132E-03
              -7.3626634809583836E-04
               2.3162339122658792E-03
              -4.2480613767885899E-04
              -4.1893083125583742E-03
              -2.0560800467614112E-03
               8.6604566378550730E-03
              -1.0144566664060375E-02
               3.2964369504179963E-03
               5.8701882877624512E-03
              -6.0049451845878515E-04
              -2.3901357659788258E-03
               6.1774088513215494E-03
              -8.6724173512542808E-03
               1.1965022668675100E-03
               2.2044728755785119E-03
              -1.9159717952940329E-03
              -5.8730879441153789E-04
               4.3184715514119317E-03
              -7.5493265463837372E-03
               5.9234043984183072E-04
               4.7139885072181492E-04
              -4.2544653172222101E-03
               2.7157690446804754E-04
               1.7917935715300079E-02
              -3.5404664217633369E-03
              -7.3428934224880954E-04
               3.2895886546768184E-03
               4.6434516227163870E-03
               4.7143354527983648E-03
               3.8701192575218641E-03
              -2.9006527059353623E-03
               8.1733622499012733E-04
               6.4810261571443747E-03
               1.1807896219060485E-02
              -1.0422049332590891E-03
              -2.9344674240658957E-03
               3.0603901711434471E-03
              -2.0695385247229050E-03
               1.8935936849542707E-03
              -4.9072531756796482E-03
              -2.8996127277166228E-03
               7.2270099664473193E-03
               3.6271059678316024E-03
               4.3951838235499942E-03
              -2.8888547467882720E-03
              -5.3062289798240445E-03
              -1.3886958217701846E-03
               3.1204652450227644E-03
              -1.1254498664523536E-04
               1.6987222901012980E-03
               1.3361506388664178E-03
              -5.5854739464374498E-03
               2.3747752998911449E-03
               5.1387222788175434E-04
              -2.2264959299421669E-03
              -5.5192217749310442E-03
               3.4542939376664829E-03
              -3.1970523605342810E-03
              -3.8933104379759850E-03
               6.1621223772501544E-04
               9.3011529826229587E-03
              -4.5470322033521561E-04
              -1.4938165937210175E-03
               2.4284672265837198E-04
               3.2678059797103865E-03
              -2.5605135965289247E-03
              -2.5456444684919559E-03
              -5.7410271793628103E-03
               2.3197991642780092E-03
               2.1974105487124257E-03
              -2.7428057508352851E-03
               2.3783678979783065E-03
              -2.3297221336661309E-03
               2.6824828178774003E-03
               1.3192361774761741E-03
               6.6292261232893954E-03
               4.8464657469574968E-04
              -2.1109335888888948E-03
               7.5580661454540338E-03
               1.7119056578012585E-03
               2.6549834289664805E-03
               1.6121847186841654E-03
              -2.6510793936510477E-03
               3.0868190764883553E-03
               1.5768431398114238E-03
              -2.8264686012096770E-03
               9.5296350952701555E-05
              -2.0282345502217573E-03
               2.0705896368349479E-03
               6.2643774430034226E-04
              -1.8121396534025482E-03
              -4.6669039010516621E-03
              -2.2714989982706582E-03
               1.5549818540282561E-03
               1.1721236159474959E-03
               5.2055161364729060E-04
              -6.1183378456384947E-03
               4.0521507129186157E-03
              -1.6900536505343078E-03
              -3.2221490065886121E-05
              -2.3591870851061457E-03
              -2.2994334323545671E-03
               2.9699835683627976E-03
               1.4747513983542531E-03
               2.2486719005579085E-03
               4.6323774835659833E-03
              -7.4112833252874648E-03
              -2.2338603008348222E-03
               4.8974438587881292E-04
              -2.4839448618584896E-03
               2.4082296312920143E-03
              -2.6597957299266855E-03
               1.7030405264164749E-03
               6.5009370539556458E-04
               1.8366899080887009E-03
               1.0264981976630260E-02
              -1.1797527645433042E-02
              -3.3370676457053008E-03
               7.5779092108732159E-04
               1.4607112564752284E-03
              -5.6365285180222709E-03
               1.7748889160725356E-03
               1.1109270271023109E-03
              -1.3584133983023331E-03
               2.8751613079439188E-03
              -7.2728170080879721E-03
               2.7848934800334614E-03
               9.6256256367226439E-03
               1.0115751843576641E-03
              -1.8178415019752586E-03
              -5.1356892442243492E-04
              -1.1214371187504568E-03
               3.6905051964071429E-03
               1.5860171017204163E-03
               2.4027634808529222E-03
              -7.7435167960350276E-04
              -3.4125218459151248E-03
              -4.5195902479825550E-03
               3.2249452518072629E-03
              -1.9682323158016967E-03
               1.3366299419661628E-03
              -1.1845199443194590E-03
              -1.6165622883178477E-03
              -4.6919129998321778E-04
              -7.3362585233184747E-04
              -2.9387748176693640E-03
               3.4414559294137612E-03
               1.7402615449367853E-03
               1.4696986211084600E-03
              -5.7083724448614849E-04
               1.1152352761436763E-03
               5.5084991129032528E-04
              -2.1814105492617411E-04
              -9.9518013498567739E-04
              -3.3913515704365451E-03
              -3.9312100331957023E-03
               2.2280784503231517E-03
               6.9673583200856770E-04
               1.0606341220432158E-03
              -8.2414496542572852E-03
               3.0740607248323192E-03
               8.8131859544543535E-03
               1.8384144291598505E-04
              -1.8696294677762251E-03
              -1.1050399797679137E-03
              -1.5800168103657884E-03
              -8.3056348206072758E-04
               3.0372444029295636E-03
              -1.1303198710037230E-03
               5.3452328314478213E-03
              -3.0847471417581472E-04
               1.9774734391409914E-03
              -1.0670970491548735E-03
              -2.8847315050876186E-03
              -5.8348332841633719E-03
               2.8790833272416467E-03
               3.4576354107377998E-03
               4.6056746844211289E-03
              -3.9680592052778272E-03
              -2.4673276602760709E-03
               1.6757522938164720E-02
               4.5183792310690635E-03
               6.2046653126183515E-02
         &END THERMOSTAT_ENERGY
         &RNG_INIT
Wiener process for Thermostat # 1        1 F T T  -1.5505429657892764E+00         661802595.0        2026459976.0        3136775027.0        3268219721.0        1056216878.0        3744216088.0             12345.0             12345.0             12345.0             12345.0             12345.0             12345.0             12345.0             12345.0             12345.0             12345.0             12345.0             12345.0
Wiener process for Thermostat # 2        1 F T T   1.5766939834860993E-01        2521559082.0        1979391111.0        3972826820.0        2839528192.0        3960449033.0        3051881342.0        3692455944.0        1366884236.0        2968912127.0         335948734.0        4161675175.0         475798818.0        3692455944.0        1366884236.0        2968912127.0         335948734.0        4161675175.0         475798818.0
Wiener process for Thermostat # 3        1 F T T  -1.6802103653762466E+00        2464096834.0        3454226368.0         668358963.0        3607867155.0        2139338144.0        1695442074.0        1015873554.0        1310354410.0        2249465273.0         994084013.0        2912484720.0        3876682925.0        1015873554.0        1310354410.0        2249465273.0         994084013.0        2912484720.0        3876682925.0
Wiener process for Thermostat # 4        1 F T T  -9.2120442907176847E-01        3007810664.0         626544053.0           5688727.0        2019501767.0        4050809287.0        2188826537.0        2338701263.0        1119171942.0        2570676563.0         317077452.0        3194180850.0         618832124.0        2338701263.0        1119171942.0        2570676563.0         317077452.0        3194180850.0         618832124.0
Wiener process for Thermostat # 5        1 F T T   1.9586792436148486E+00        3119398129.0        2238966874.0        1731687009.0        1729823850.0        3912388439.0         182524877.0        1597262096.0        3906379055.0        3312112953.0        1016013135.0        4099474108.0         275305423.0        1597262096.0        3906379055.0        3312112953.0        1016013135.0        4099474108.0         275305423.0
Wiener process for Thermostat # 6        1 F T T  -2.2012851380256623E-01         527820745.0        2447393615.0         338698828.0         653439858.0         976211817.0        3944196308.0          97147054.0        3131372450.0         829345164.0        3691032523.0        3006063034.0        4259826321.0          97147054.0        3131372450.0         829345164.0        3691032523.0        3006063034.0        4259826321.0
Wiener process for Thermostat # 7        1 F T T  -1.2191095662093037E-02         167278661.0        2992638024.0        1197931920.0         124710794.0         889033703.0        2194094787.0         796079799.0        2105258207.0         955365076.0        2923159030.0        4116632677.0        3067683584.0         796079799.0        2105258207.0         955365076.0        2923159030.0        4116632677.0        3067683584.0
Wiener process for Thermostat # 8        1 F T T  -2.6373530393371375E-01        2923147749.0        3809475671.0         892364519.0        3114385888.0        3523415917.0        3402922821.0        3281794178.0        2616230133.0        1457051261.0        2762791137.0        2480527362.0        2282316169.0        3281794178.0        2616230133.0        1457051261.0        2762791137.0        2480527362.0        2282316169.0
Wiener process for Thermostat # 9        1 F T T  -1.2388913960989989E+00         276694386.0        3384434371.0        2194062143.0        3864498526.0        2498625561.0        4174179731.0        3777646647.0        1837464056.0        4204654757.0         664239048.0        4190510072.0        2959195122.0        3777646647.0        1837464056.0        4204654757.0         664239048.0        4190510072.0        2959195122.0
Wiener process for Thermostat # 10       1 F T T  -6.9271884074884071E-01         298842605.0        4183294382.0        3769908432.0        1623977651.0        3452521187.0         349927101.0        4215590817.0        3862461878.0        1087200967.0        1544910132.0         936383720.0        1611370123.0        4215590817.0        3862461878.0        1087200967.0        1544910132.0         936383720.0        1611370123.0
Wiener process for Thermostat # 11       1 F T T  -3.9199517781213300E-01        1183014876.0        2469777470.0        2706060047.0        1374668043.0         490283634.0         131761905.0        1683636369.0         362165168.0         814316280.0         869382050.0         980203903.0        2062101717.0        1683636369.0         362165168.0         814316280.0         869382050.0         980203903.0        2062101717.0
Wiener process for Thermostat # 12       1 F T T   1.2248374085476998E+00         744312290.0        1838623065.0        1895433531.0        2930723882.0        3034111406.0        1223209339.0         272317999.0         166758548.0         310112982.0         201045826.0        1680231254.0         118290799.0         272317999.0         166758548.0         310112982.0         201045826.0        1680231254.0         118290799.0
Wiener process for Thermostat # 13       1 F T T   1.6053528300026945E-02         341235087.0         365462780.0         607175623.0        3292057964.0        1611524565.0         256574977.0        2245755202.0        1652682525.0        2865544364.0         721509566.0         209733568.0         592362218.0        2245755202.0        1652682525.0        2865544364.0         721509566.0         209733568.0         592362218.0