 # Version information for this restart file 
 # current date 2022-11-29 19:05:37.174
 # current working dir /scratch/work/courses/CHEM-GA-2671-2022fa/sl9736/comp-lab-class/Week12/Runs/Proton
 # Program compiled at                              Sat Dec 12 18:27:15 EST 2020
 # Program compiled on                                         cs001.nyu.cluster
 # Program compiled for                                                nyu-intel
 # Source code revision number                                       git:8c64c6e
 &GLOBAL
   PRINT_LEVEL  LOW
   PROJECT_NAME proton_aimd_1ns_every0.5fs
   RUN_TYPE  MD
   WALLTIME 21600
 &END GLOBAL
 &MOTION
   &GEO_OPT
     OPTIMIZER  BFGS
     MAX_ITER  100
     MAX_DR     3.0000000000000001E-03
     &BFGS
     &END BFGS
   &END GEO_OPT
   &MD
     ENSEMBLE  NVT
     STEPS  2000
     TIMESTEP     4.9999999999999994E-01
     STEP_START_VAL  1000
     TIME_START_VAL     4.9999999999999636E+02
     ECONS_START_VAL    -1.1027506064962838E+03
     TEMPERATURE     3.0000000000000000E+02
     &THERMOSTAT
       TYPE  GLE
       REGION  MASSIVE
       &GLE
         NDIM  5
         A_SCALE     1.0000000000000000E+00
         A_LIST     1.8595758612559999E+02    2.7263853498399998E-01    1.1526100454610001E+01   -3.6414578262600003E+01 \
             2.3173375816020001E+02
         A_LIST    -2.7809524712060002E-01    8.5951591808710006E-05    7.2189048017650004E-01   -1.9844539343859999E-01 \
             4.2409257583420001E-01
         A_LIST    -1.4825808131210000E+01   -7.2189048017650004E-01    1.3590902121280000E+00    5.1498896280349999E+00 \
            -9.9949268450990001E+00
         A_LIST    -1.0372189126880000E+01    1.9844539343859999E-01   -5.1498896280349999E+00    2.6661910891169999E+01 \
             1.1507715495310000E+01
         A_LIST     2.1801346360420001E+02   -4.2409257583420001E-01    9.9949268450990001E+00   -1.1507715495310000E+01 \
             3.0958394565589998E+02
         &THERMOSTAT_ENERGY
              -2.6584447336945741E-03
              -2.6377181094839166E-04
              -1.6893223064895744E-03
               6.8263340546850350E-03
              -5.1583971996404894E-03
               6.7498121318234983E-03
               3.2053991558017667E-04
              -4.2849351966342767E-03
               2.1292587707215198E-03
               4.0126060454553887E-03
               9.4324473159267414E-03
              -5.1404182897799942E-03
              -2.9449373281140892E-03
              -1.8478536701126355E-03
               6.5640963890278923E-04
              -3.6407121797488846E-03
               5.5200170184039445E-03
              -4.0456386126777018E-03
               3.3085859644062894E-03
              -5.2683063152908702E-03
               4.3695203114654168E-03
               5.9188735945124287E-03
              -1.0135353356750681E-02
              -5.0619643976407519E-04
               2.6823437835375237E-03
              -6.0669772903997280E-03
               3.9585443210540631E-03
               2.2894652373565212E-04
               1.0512040055425690E-03
              -2.5293388354480631E-03
              -1.8421978132930814E-03
              -1.7962962381237050E-03
               1.1437418683202044E-03
               7.3181425742763536E-03
              -9.5106947032781077E-03
               8.4257161662134265E-03
              -3.5024351545959375E-03
              -7.7074704716683544E-04
               4.8415068191942428E-04
              -5.0234679180279213E-03
              -3.8425037926759407E-03
               4.0435509668381375E-04
               2.6499642759264860E-03
               7.3664929945633150E-03
              -1.8555104783475455E-03
               2.2526470473117552E-03
              -2.5995365238761104E-03
               4.8080255331922677E-03
               3.9303339329143745E-03
              -5.7387313353940705E-03
               2.1163714030701572E-03
              -4.5901952608105355E-03
              -4.3805561546172373E-03
               1.0469869143437577E-02
              -6.2026943837413216E-03
               4.1242007193217201E-04
              -2.3885155358981114E-03
               5.3443097695272045E-04
              -3.6358247677651935E-04
               4.0991456395053118E-03
              -7.4073526142592893E-04
              -1.1264641097688780E-03
               1.0103681364984520E-02
              -2.3988117082422884E-03
              -5.5770968585274242E-04
              -3.0119499948361690E-03
              -1.1302847814987350E-02
               3.2384525431398303E-04
               1.3004818720528336E-02
               5.4238175095768903E-03
              -5.5259356753749691E-04
              -8.0242112750509055E-03
              -2.9717419535527497E-03
               4.2049862491464699E-04
              -2.5878934723351319E-03
              -6.9904679877918364E-03
               5.6327282294051928E-03
               7.2502183209012050E-03
               7.9748506409530601E-03
              -5.1207730068975523E-03
              -4.9377806932964768E-03
               6.0834344138847797E-04
               1.3907259995793639E-03
              -1.0634442742291621E-03
               4.7955088172559118E-03
               4.2635320581903766E-03
              -1.1740475255112091E-03
              -2.9175016777700583E-03
               4.3601868804914743E-03
              -2.1260833516526861E-03
               3.3988857905519333E-03
              -6.8319755175955277E-03
               1.3033052430874803E-03
              -3.5237911294171264E-03
              -6.1865462117389729E-03
               4.5262136119328935E-03
               7.9721851648638428E-03
              -4.3286210555065919E-03
               7.5523204844543199E-03
               9.1213326641347708E-04
              -1.4761860428450144E-03
              -6.5133565923075985E-03
               3.0750587269365122E-03
              -4.4803555319454210E-03
               4.8581623203997346E-03
               4.0166571517732900E-03
               1.9376365905820524E-03
              -2.9610415368148935E-03
               4.7040235865556659E-03
              -8.3062359789031360E-03
               3.2640999298973157E-03
              -6.9842015227871963E-04
               2.2067164849588327E-03
               5.0459413182713485E-03
              -3.4980204129949652E-03
               5.1926414811315274E-03
              -1.5852911972479015E-02
               3.8652589432150121E-03
               3.5020881732615713E-05
              -2.3316251259839020E-04
               1.0352248186932434E-02
              -8.7756565312457745E-03
               1.4845064962410977E-03
               3.2350876242085374E-04
               2.1371781347158591E-03
              -4.4889939250546329E-03
               1.3490059316361676E-03
               8.7463668684228100E-04
               2.4109055961484007E-03
              -2.2072612074788044E-03
              -5.5707272634790720E-05
               3.9671482982686019E-03
              -2.5887547155032963E-03
               6.1492485471649934E-03
               5.9621342773761980E-04
               7.3114635210999948E-05
              -6.4542669266847872E-03
              -4.2834989890218654E-03
              -1.5554294281335955E-03
              -5.5954772637951209E-03
               4.3483900367259935E-03
               2.3603658456632839E-03
               1.5676415151329937E-02
              -4.4502226585822584E-03
              -1.5661823257712387E-03
              -1.3893283526187948E-03
               9.0159819992055319E-03
              -4.2830395065883813E-03
               9.8366718933280651E-04
              -9.2877243253349461E-04
              -6.9251544874878905E-03
               4.5977518685014537E-03
               9.4177404553439726E-04
              -3.5646511108562437E-03
              -7.5458904706364981E-05
               1.2956220773379730E-05
               3.7640217780343108E-03
               1.7520236945900874E-03
              -4.6243984131198752E-03
               3.9898291734176139E-03
              -7.5192272501776042E-03
              -2.4740203641081013E-03
              -2.2155283710771820E-03
              -1.9486687023329461E-03
               5.0539991656967844E-03
               5.0470764897216957E-03
               4.8734004780521195E-03
              -1.1281125387716303E-03
              -8.8661044876118551E-03
               3.6091576694527337E-03
              -1.7102830650639789E-03
              -3.3539223365423023E-03
               2.0148825011997384E-03
               2.3693895785607375E-03
               1.8772395404934811E-03
               3.9591990480074904E-03
               1.4700518836808642E-03
               7.0231978438336053E-04
              -5.6273054508912987E-04
               3.7541858120123742E-03
              -1.2088612341910724E-04
               1.9644504026633965E-03
               6.8425449858906476E-03
              -5.0380175863168671E-03
               5.5069867336563876E-03
              -4.7400427273931638E-03
              -1.6724968517886892E-03
               1.0845267405333768E-04
              -3.0957053690513553E-03
              -2.3752163509337659E-03
               1.2339529573942149E-03
              -2.3072891422309650E-03
              -4.2771657163322273E-03
               1.6430060428945749E-03
               3.8536916971166364E-03
              -4.9836001043226932E-03
              -4.8204481489175109E-03
               8.6480928557036187E-03
               2.7316872248562985E-03
              -1.7778160855273137E-03
              -4.6512629537482312E-03
              -5.2289776720607292E-03
               2.9958223690033023E-03
               2.5544432778470496E-03
               7.5830005381292758E-04
              -1.4772125694419470E-04
              -7.0065294106460094E-03
               2.2677257492866960E-03
              -2.8636516692906295E-03
               2.8529876481513368E-03
               3.5714476267216791E-03
               3.9636460492351545E-03
               5.3935062738868205E-03
              -1.2507378251483662E-02
               1.2528392399140505E-02
              -2.7209352317665038E-03
              -2.7341180145797560E-03
               5.1866026298007821E-03
               1.0658656863142095E-03
              -5.4128237526871346E-03
              -2.6253125542712846E-03
               2.7004176595910208E-03
              -1.7880825018537219E-03
               4.6473302984310254E-03
              -3.2448786724700628E-03
              -6.0719853399179553E-04
               2.5179072557738810E-03
               2.9119783515468675E-03
              -3.2792115291217544E-03
               2.9194933073741778E-03
              -4.3986428556922023E-03
               3.8516230929380134E-03
               4.2860920724998707E-03
              -5.0787364823266980E-03
               4.4367049822487013E-03
               1.2835032356352961E-03
              -1.1577321506232709E-03
               2.5695729617120246E-04
               4.5446068849989392E-03
               1.4916583619978634E-03
               1.4179381122051634E-03
              -1.1417409644606117E-02
               2.9499031803485931E-03
              -1.4156906632046705E-04
              -3.5770099114312030E-03
               2.4329017222785338E-03
               2.9423953018142238E-03
              -4.2197025630356074E-03
              -7.7793264467068105E-04
              -2.6948176291854624E-03
              -5.4576241007192139E-04
               2.1911024988953845E-03
              -4.5726027186954845E-03
              -2.3391827213915239E-04
               3.8580907811242762E-03
              -3.3008778817360598E-03
               1.3129326076874739E-02
              -4.6336595200512486E-03
               2.2999477413968589E-03
              -9.7187365926840619E-03
               6.3242953458706765E-03
               1.1418717041389019E-03
               3.1519566026596327E-03
               6.0534767994763084E-03
               1.0735900889987080E-02
              -1.9024671965865896E-03
              -2.3446568010752297E-03
              -8.6259524593486538E-03
              -3.1029085676148238E-03
               3.5285698818995240E-03
              -2.0631665608145285E-03
              -3.9434662964971017E-03
               4.0452187758966487E-03
               1.0400038879892042E-02
              -2.1597722487505592E-04
               4.0953201681737210E-03
              -1.9847435468746628E-02
               1.2715547282505589E-02
              -2.7462112922086255E-03
               2.9196531708714397E-03
              -2.4485071600429354E-03
               4.8692158673031647E-03
               4.9681410902959544E-03
               4.1339065893427306E-04
              -2.7543245699843677E-03
               1.0841382365907868E-03
               3.3616941476452898E-03
              -3.9016399660690513E-03
              -1.1462210383282861E-04
              -3.8737013983265869E-04
               1.5428799538157950E-03
               3.1739186228306820E-03
               5.8291469599272535E-03
              -1.1795015464192168E-03
              -1.0011647545471048E-03
               3.1526152848157015E-03
              -3.9755472322524779E-03
               6.1420871110609782E-04
              -3.0896783129128851E-03
              -2.9196324889222997E-05
              -5.1432112880989882E-03
               6.5826829897489463E-03
               3.4970220534503928E-03
              -1.6766497578885402E-03
               7.7455140356458632E-03
              -6.6204715402323894E-03
               2.1421565374142026E-03
              -1.4082710262977196E-03
              -3.4724082700355778E-03
               1.0400560290925086E-02
              -3.7931503697358824E-03
              -8.8019822694470305E-03
               4.9305971355515323E-04
               5.5241805996949361E-03
               1.2673035845606638E-03
               1.4631593422033912E-03
               1.5828808089467740E-03
               3.7509965434748991E-03
              -2.5526842983637590E-03
              -5.0905008223078663E-03
               1.3595353100349655E-02
              -6.8604270597638801E-03
              -9.6188026083191460E-03
               6.6754295948326155E-03
              -2.8662105001440903E-03
               2.6217870652426099E-03
               3.6530951299898109E-03
               4.2025471109834898E-03
              -5.4026614490034737E-03
              -4.9855660819930359E-03
              -3.5490170814394834E-03
              -5.5289395236710528E-03
               8.7574929554095644E-03
              -4.9289315826603645E-03
               1.3020875451395159E-03
              -1.6424309912378473E-03
               1.6687579717109317E-02
               3.4705171033322466E-04
              -5.2925508681286940E-03
               6.2167566368999385E-03
               1.8535284570346978E-04
              -1.2121910430286532E-03
               6.4868768052224884E-03
               3.4861936717587249E-04
              -2.2478352014193735E-03
              -9.1546513419902675E-03
               5.8299032144183216E-03
              -1.2418670844339410E-03
               1.4146590699839626E-03
               1.7228653625991099E-03
              -2.8732668558005001E-03
               5.9241660315274879E-03
              -6.7901595547393712E-03
               2.3659635772896722E-03
              -4.0774388881734671E-03
               8.0263194976884691E-03
               2.4106599439596378E-03
              -4.3330650062543838E-03
               1.5211422808560217E-03
               9.0833731532094248E-03
               3.5672620305971582E-04
              -4.1700300594601830E-04
              -1.1566115661776028E-02
              -1.6358330118483779E-03
              -2.4779478481650823E-03
               1.1072211730328961E-02
               3.2664335651717150E-03
               1.2042004034116829E-04
              -1.6452021373005070E-03
              -1.6143603427255877E-04
               1.7765795227090656E-03
              -2.9194669234105693E-03
              -7.0410054373461388E-03
              -4.1772006255576559E-03
               6.8911905301598398E-03
              -1.0105066199817336E-02
               5.9247256518727360E-03
               4.4292924668181003E-03
              -3.6460079323519263E-03
               8.3853226378373199E-05
              -2.3381322880503884E-03
               3.1526222389949279E-03
               1.8528300237006291E-02
              -4.1538685520339635E-03
              -1.3900879287439927E-02
               6.1677610028766042E-03
              -5.4190264814389611E-03
              -3.8162655980366750E-03
              -1.6879657047787608E-03
               4.8824351294908319E-04
               1.1331490040047349E-03
               5.0378888301719979E-03
               1.8605717522979374E-03
               3.5240784157003638E-03
              -5.2125475117028005E-03
              -4.4877576453233670E-03
               5.6963515431176191E-04
              -4.1789444167096785E-03
               3.5609845746156113E-03
              -1.3453435587861100E-02
               1.5153474523962914E-03
               1.0136310291379251E-02
              -9.0170622747803072E-03
               8.0553911535800448E-03
               6.0137730721097002E-03
               1.4510828228856795E-03
               4.6314309541437026E-04
               7.9661774522682503E-03
              -8.7364359260392217E-03
               3.6616862222734964E-03
               6.2310829864226731E-04
               3.5619601888216084E-03
              -2.9862144806641054E-03
               2.0590569971794164E-03
              -7.1186873603269361E-03
               1.3413328514162812E-04
               2.6132744399364129E-03
               2.3913549201654298E-04
              -5.6915647129115142E-03
               1.3751178434250121E-02
              -5.3214345403128594E-03
               8.3847686712438163E-04
               1.4707470208176032E-03
               3.2311892089862894E-03
               6.9384819497477265E-03
               2.2316116702689077E-03
              -8.3252745895466759E-03
               4.3456567109994917E-03
               1.3902096194281455E-02
               1.3699143195427341E-02
              -1.4685491682952495E-03
              -4.9255987581899984E-03
              -9.7900908294192793E-04
              -8.1297646051463801E-04
               2.5842549961778006E-03
              -1.0038275969445324E-02
              -3.2848861752069348E-04
               6.7380101025915065E-03
              -1.7135197456879081E-03
               7.3270858597413403E-03
               7.2223637386437296E-04
              -8.2553661247768244E-03
               1.7479163741665625E-03
               5.0466026245773125E-03
               3.0504031872398761E-03
              -7.3528501887228578E-03
               3.6269742154153243E-03
              -4.6009040746806491E-03
               2.4412656784162570E-03
               3.5046994093024674E-03
              -1.2260295086816771E-03
              -3.2763303799014177E-03
               5.8310434527847985E-03
              -1.0795023423750274E-02
              -7.9969552020772959E-03
               1.9186662285409933E-03
               1.2119190039916131E-02
               7.0359647158288272E-03
              -6.2980975681611482E-03
              -4.7817251855851346E-03
               3.0000299512214995E-03
              -5.2925480802508080E-03
               4.8421789657248230E-03
              -6.0720087945797703E-03
               8.6273019923960477E-04
               1.0562058173160620E-02
              -3.2844431848492624E-03
              -2.2782197296296702E-03
              -9.8582037600627374E-04
               3.0196229478233394E-03
               2.1330455867695644E-03
               1.0847620627547022E-02
              -4.9170483386245080E-03
              -4.9723786625801717E-03
               3.1274215401668431E-03
               4.9061851885255931E-03
               3.4328170863356005E-03
               3.7573163478806402E-03
              -3.1406430470765131E-03
               2.4529890741923147E-03
              -9.5051398549526912E-03
               1.1230751011857127E-03
               6.6457080575758627E-04
              -5.3150285469515581E-03
               4.9374267314197823E-03
              -3.5979831606082930E-04
              -4.8890115864957265E-03
              -4.8948196463479065E-03
              -1.2813042372770275E-03
               4.7003923946814154E-03
              -3.1672406266405016E-03
               3.7956892102804542E-03
              -5.3909320575053115E-03
               7.7813897158432298E-03
               1.4542760404707279E-03
               2.7339167349224066E-03
              -2.2828979694815258E-03
              -1.4340578946303714E-04
               3.1567944142928957E-03
               1.5988585878064262E-03
               3.3722091687329678E-03
              -2.5172727008735485E-03
              -2.8826311411925282E-03
              -7.3986454999494891E-04
               2.5287786121329222E-03
              -3.7853310958282649E-03
               1.4151291624700537E-03
               2.8791148627703754E-03
               4.0663632024489057E-03
              -1.3503817292096014E-03
               2.3354120507373655E-03
               1.2029933886953524E-02
              -1.3667304463043810E-02
              -4.2011478598380232E-04
              -1.7916476254183642E-04
               2.1725229668291936E-03
              -6.2938364542895068E-03
               6.9499771754910266E-03
               3.6952461753634305E-03
               5.1854646941429492E-04
               9.6633025613711461E-03
              -1.5289151744136557E-02
               3.5802962978117108E-03
               1.0819700800947381E-02
               2.8259164255649977E-03
              -4.1364289150730002E-03
               7.7376262210178371E-04
              -4.5205845937203362E-03
               1.0856320253805847E-02
              -2.7459771014408047E-03
              -2.4469065930090989E-03
               3.2588320907854665E-03
              -4.4494101955112435E-03
              -1.8133471291844664E-03
               9.7315753245269618E-03
               3.8028420015395769E-04
              -3.0734725300113979E-03
               3.1850196868949695E-04
              -1.0632208272596144E-02
               2.1398304146893797E-03
               2.9595837607776397E-03
              -2.5647984910453876E-03
               3.7848241090067646E-03
               5.8960190712967374E-03
              -8.3376175366772721E-04
              -2.1008194394690921E-03
              -9.3800475344948194E-04
              -1.9286520669981164E-04
              -1.0361314922752074E-03
              -2.3616549983444535E-03
               4.8313599211324528E-03
              -5.3438631887913054E-03
              -2.0544668530566315E-04
               2.7600258418888851E-03
               4.0834684791828009E-03
              -1.0698233432187855E-02
               3.6573924211047160E-03
               1.8359092870285844E-03
               2.1163106762664306E-03
               4.4410776384859532E-03
              -9.3304271426249770E-04
              -5.6484575551060366E-03
              -3.9835196280738642E-03
               1.0826463847812098E-02
              -1.0711636619523169E-02
               1.3820334690007877E-02
               4.0278706105986899E-03
               7.2115553276010504E-04
              -3.4226386820029849E-03
              -2.7972460177901142E-03
              -5.8412094177456193E-03
               8.7940819376770450E-04
               1.1483275791428963E-02
               1.6873622640497473E-03
              -6.4951934428743776E-03
               2.0657730132922843E-03
               1.8499814397455440E-02
              -5.0358591800049781E-03
               6.4454786948785550E-02
         &END THERMOSTAT_ENERGY
         &RNG_INIT
Wiener process for Thermostat # 1        1 F T T  -9.8236738167888460E-01         226733040.0        4248387519.0        1164353849.0        2758509449.0        3644127687.0        1764793484.0             12345.0             12345.0             12345.0             12345.0             12345.0             12345.0             12345.0             12345.0             12345.0             12345.0             12345.0             12345.0
Wiener process for Thermostat # 2        1 F T T  -1.4171306107827426E+00        1528154308.0        2775625301.0         197130159.0        1452211673.0        1835562137.0        1983376171.0        3692455944.0        1366884236.0        2968912127.0         335948734.0        4161675175.0         475798818.0        3692455944.0        1366884236.0        2968912127.0         335948734.0        4161675175.0         475798818.0
Wiener process for Thermostat # 3        1 F T T   8.6049543281786645E-01        2248570378.0        1724762616.0          52903713.0        3229622658.0        3199004837.0        4241126217.0        1015873554.0        1310354410.0        2249465273.0         994084013.0        2912484720.0        3876682925.0        1015873554.0        1310354410.0        2249465273.0         994084013.0        2912484720.0        3876682925.0
Wiener process for Thermostat # 4        1 F T T  -1.5460863137690717E+00         957380376.0         510326667.0        2247033635.0        2033071685.0        3054261466.0        3462352516.0        2338701263.0        1119171942.0        2570676563.0         317077452.0        3194180850.0         618832124.0        2338701263.0        1119171942.0        2570676563.0         317077452.0        3194180850.0         618832124.0
Wiener process for Thermostat # 5        1 F T T   1.5428690481661575E-01        4203301200.0         738999836.0        1485820986.0          20648636.0        2223680357.0        4294941489.0        1597262096.0        3906379055.0        3312112953.0        1016013135.0        4099474108.0         275305423.0        1597262096.0        3906379055.0        3312112953.0        1016013135.0        4099474108.0         275305423.0
Wiener process for Thermostat # 6        1 F T T   7.0411917217518150E-01        1265311014.0        3687607523.0        1792102642.0         142025920.0         459804801.0        1211121065.0          97147054.0        3131372450.0         829345164.0        3691032523.0        3006063034.0        4259826321.0          97147054.0        3131372450.0         829345164.0        3691032523.0        3006063034.0        4259826321.0
Wiener process for Thermostat # 7        1 F T T  -9.5744195640119531E-02        4040223344.0        4246262317.0         329086624.0          28777921.0        2946509694.0        1489700490.0         796079799.0        2105258207.0         955365076.0        2923159030.0        4116632677.0        3067683584.0         796079799.0        2105258207.0         955365076.0        2923159030.0        4116632677.0        3067683584.0
Wiener process for Thermostat # 8        1 F T T  -1.2413826789147817E-01         252045112.0        2848200345.0         154646410.0        1271924195.0        1873079261.0        3351978939.0        3281794178.0        2616230133.0        1457051261.0        2762791137.0        2480527362.0        2282316169.0        3281794178.0        2616230133.0        1457051261.0        2762791137.0        2480527362.0        2282316169.0
Wiener process for Thermostat # 9        1 F T T   1.0331244080464512E+00        3784506675.0        1914172684.0        3527875272.0        1610827989.0        3855196701.0        1117597481.0        3777646647.0        1837464056.0        4204654757.0         664239048.0        4190510072.0        2959195122.0        3777646647.0        1837464056.0        4204654757.0         664239048.0        4190510072.0        2959195122.0
Wiener process for Thermostat # 10       1 F T T   2.1466585360569199E-01        3057685686.0        2869029583.0         411221469.0        2821893460.0         322924656.0        1143227575.0        4215590817.0        3862461878.0        1087200967.0        1544910132.0         936383720.0        1611370123.0        4215590817.0        3862461878.0        1087200967.0        1544910132.0         936383720.0        1611370123.0
Wiener process for Thermostat # 11       1 F T T  -4.4132046785776799E-02        1554543736.0        2717576499.0        4135075403.0        2618383353.0         642871762.0         249586537.0        1683636369.0         362165168.0         814316280.0         869382050.0         980203903.0        2062101717.0        1683636369.0         362165168.0         814316280.0         869382050.0         980203903.0        2062101717.0
Wiener process for Thermostat # 12       1 F T T  -5.6161533877704317E-01        1770324141.0        3770017049.0         190859559.0         764828178.0        2918138424.0         736540625.0         272317999.0         166758548.0         310112982.0         201045826.0        1680231254.0         118290799.0         272317999.0         166758548.0         310112982.0         201045826.0        1680231254.0         118290799.0
Wiener process for Thermostat # 13       1 F T T   9.7554409384929153E-01        3627045108.0        1898589428.0        2752141753.0          85759421.0        2499273175.0        1137986601.0        2245755202.0        1652682525.0        2865544364.0         721509566.0         209733568.0         592362218.0        2245755202.0        1652682525.0        2865544364.0         721509566.0         209733568.0         592362218.0