 # Version information for this restart file 
 # current date 2022-11-29 22:08:44.104
 # current working dir /scratch/work/courses/CHEM-GA-2671-2022fa/sl9736/comp-lab-class/Week12/Runs/Proton
 # Program compiled at                              Sat Dec 12 18:27:15 EST 2020
 # Program compiled on                                         cs001.nyu.cluster
 # Program compiled for                                                nyu-intel
 # Source code revision number                                       git:8c64c6e
 &GLOBAL
   PRINT_LEVEL  LOW
   PROJECT_NAME proton_aimd_1ns_every0.5fs
   RUN_TYPE  MD
   WALLTIME 21600
 &END GLOBAL
 &MOTION
   &GEO_OPT
     OPTIMIZER  BFGS
     MAX_ITER  100
     MAX_DR     3.0000000000000001E-03
     &BFGS
     &END BFGS
   &END GEO_OPT
   &MD
     ENSEMBLE  NVT
     STEPS  2000
     TIMESTEP     4.9999999999999994E-01
     STEP_START_VAL  2000
     TIME_START_VAL     9.9999999999998226E+02
     ECONS_START_VAL    -1.1027506064962838E+03
     TEMPERATURE     3.0000000000000000E+02
     &THERMOSTAT
       TYPE  GLE
       REGION  MASSIVE
       &GLE
         NDIM  5
         A_SCALE     1.0000000000000000E+00
         A_LIST     1.8595758612559999E+02    2.7263853498399998E-01    1.1526100454610001E+01   -3.6414578262600003E+01 \
             2.3173375816020001E+02
         A_LIST    -2.7809524712060002E-01    8.5951591808710006E-05    7.2189048017650004E-01   -1.9844539343859999E-01 \
             4.2409257583420001E-01
         A_LIST    -1.4825808131210000E+01   -7.2189048017650004E-01    1.3590902121280000E+00    5.1498896280349999E+00 \
            -9.9949268450990001E+00
         A_LIST    -1.0372189126880000E+01    1.9844539343859999E-01   -5.1498896280349999E+00    2.6661910891169999E+01 \
             1.1507715495310000E+01
         A_LIST     2.1801346360420001E+02   -4.2409257583420001E-01    9.9949268450990001E+00   -1.1507715495310000E+01 \
             3.0958394565589998E+02
         &THERMOSTAT_ENERGY
               7.3078569573841064E-04
               3.3919943602584435E-03
               3.1416440405451686E-03
               8.7793043718894029E-04
              -1.1815156766165123E-02
               8.9745794944522238E-03
              -6.5586132400004575E-03
              -1.9412804973573681E-03
               1.0821179712181899E-02
               5.7304023863403589E-03
               1.1149870411843942E-02
              -2.3257167726877109E-03
              -1.1259951827180905E-03
              -3.0107255257287267E-03
               2.4763666299204576E-03
              -8.6469979973203236E-03
               4.8558804224862794E-03
               3.7899526125624809E-03
               3.8972639292951926E-03
              -6.4969240067726990E-03
              -2.8240048852238219E-03
               1.1939084858713048E-02
              -1.6417175425127169E-02
              -9.1884191408279810E-03
               6.7457237101019793E-03
              -6.4936175511863649E-03
               7.7838587189223065E-03
              -1.7594636787226158E-03
               3.5933923362252043E-03
              -4.2389425674642161E-04
               8.2713738641735056E-03
              -1.0990369981115508E-02
               1.4125073891481583E-03
               2.2091190433745685E-03
              -4.7779629089244784E-03
               1.2342240498729586E-02
              -2.4351480821306018E-04
               4.3951906142636739E-04
              -8.6595596099301624E-04
               9.4832213779511565E-03
              -4.2438894637023524E-03
              -1.1411263177210114E-02
               4.4869592112987879E-04
               1.0107336012484022E-02
               2.1423654758506534E-03
               4.9799218183858877E-03
              -2.1665533605922374E-03
               4.2029568455702248E-03
               6.0027883222770004E-03
               3.9798272822711700E-03
               3.2072791544214964E-03
              -3.5614377800437121E-03
              -5.9089920195292446E-03
               1.6540441766538114E-02
              -8.5697453370259212E-03
              -5.5392721322037090E-04
              -3.2731245860253954E-03
              -5.4124413593331583E-03
               3.1801325729463341E-03
               7.7264601545126580E-03
              -5.1968670368199637E-03
              -4.8062933875792323E-03
               1.5889198616220061E-02
              -6.0733619544566363E-03
               3.2078052556332864E-03
              -3.7152412176739290E-03
              -1.5224117183402431E-02
               1.3501987192855168E-02
               1.4894828571424407E-02
               2.1852846059785850E-03
              -1.3205799313962173E-02
              -6.8766582220986718E-03
              -4.7509794766012652E-03
               3.5297215466405267E-03
               4.9557395038107995E-04
              -1.2979116116088821E-02
               2.0599438926744252E-02
              -1.3619351693317458E-03
               8.0622134171451539E-03
               1.5386647184902804E-03
              -7.1449976205576089E-03
              -5.3945578508777766E-03
              -4.1239212924458891E-04
              -1.5618158008848455E-03
               2.4533764266838165E-03
               5.7730239443748712E-03
              -7.1162596840556951E-04
              -1.4763461156427023E-02
               6.8346272376068780E-03
               1.4109623676907546E-03
               4.8751808417705593E-03
              -1.0343820461829172E-02
               3.2917260340133169E-03
              -2.1110534831313569E-03
              -9.7289857920226444E-03
               5.4784829787505951E-03
               1.6373176376149157E-02
              -7.6639853170207099E-05
              -6.4680440169325815E-04
               2.9532032754323994E-04
              -1.1954155553306253E-03
              -8.1220359109209928E-03
               2.5534003294761182E-03
               5.3267500372858887E-05
               7.6857462495208439E-04
               1.2017235797105553E-02
              -8.3519141767989988E-04
              -8.7833587307184074E-03
               7.3059239993511276E-03
              -6.8052474620963095E-03
               6.0949068815303511E-03
               1.8396491381431245E-02
              -1.2062848059366638E-02
              -2.6514389070293326E-03
              -4.6362186400237867E-03
               7.4446744493345323E-03
              -1.6769792595021257E-02
               1.0431882825618121E-03
               4.2351027787515070E-03
               1.6505390247125954E-03
               1.2405514132564735E-02
              -9.5837596899388481E-03
               3.4287337770139738E-03
               3.9227625780059700E-04
              -9.8007746170141619E-03
               1.3122809696468902E-03
               2.2425640352844293E-03
               1.6718087690919794E-03
               6.5243761513433265E-04
               5.5740509630899677E-03
              -2.3886153263649396E-03
               7.5690247270830343E-04
              -1.9149933196657978E-03
               2.2434724904006422E-03
               1.0211054101928858E-03
              -1.6090618614575123E-03
              -4.7943473296790133E-03
              -6.7384286794024357E-03
              -6.2890709658924657E-03
               1.4500437848381391E-04
              -5.6216937355001440E-03
               2.6925122992831124E-03
               1.5989680025420182E-02
              -4.1424447456854009E-03
              -2.6172157762744519E-04
              -5.9605843335057236E-03
               8.1212332154631233E-03
               5.0406417203086107E-03
               4.5753590200143715E-04
              -5.8063996356429422E-03
              -1.6331253261100128E-02
               1.0058880683613608E-02
               3.2354137029596362E-03
              -5.4313326594387637E-03
              -3.7071232865453487E-03
              -5.2351394430288018E-03
               6.6776053948040780E-03
               2.4248606006068356E-03
               2.8248383297565351E-03
               3.8263927221027275E-03
              -1.1092142737405726E-02
              -9.8597237750317249E-04
              -8.4462476407178803E-04
              -2.9908265814266432E-03
               9.3134112759048447E-03
               1.1874884435901265E-02
               7.7328162554517613E-03
              -1.8478170310940407E-02
              -3.9828227714646799E-03
               3.1999839514409161E-03
              -9.1298246631796223E-03
              -3.8241209865841146E-03
               5.7075530077371588E-03
              -4.4454945085825358E-03
               5.6759168039453535E-03
              -2.6741616866193408E-03
               4.7203151368751372E-03
              -2.0771948264529335E-03
              -8.5619214717197207E-04
               5.5692545281156641E-03
               5.8586965241891175E-03
              -1.3870822949150711E-03
               1.1103652251736588E-02
              -1.2001361294339380E-02
               1.4085478359582506E-02
               7.9700682269932431E-04
               4.9949116136836346E-05
              -6.2691559197545280E-03
              -7.7843717381272954E-03
               1.3396762132577677E-04
               2.6999462702518638E-03
               2.3176153729247868E-03
              -3.7838226303382504E-03
               1.0600603385289942E-02
               6.8069235981894167E-03
              -1.1264208036198936E-02
              -5.7110586903210570E-03
               2.5261336230972113E-04
               8.5493792995069741E-03
               7.1183700365244477E-04
              -8.1651829452252991E-03
              -2.6148742527451422E-03
               5.1352450324228267E-03
               1.6357296525735764E-03
              -4.0787913879346332E-03
               2.2776891158026976E-03
              -6.5525578740988780E-03
               1.2820534273792960E-03
              -3.7333648911822871E-03
              -1.2334430854198716E-03
               7.9961716873485546E-03
              -2.7108520512606044E-03
               9.2365142047253317E-03
              -1.1418240530044917E-02
               1.3173023038529711E-02
              -4.7747903292942569E-03
              -9.9396703803625707E-03
               8.1313839344005247E-03
               3.3746555990786173E-03
              -5.9311742302676062E-03
              -2.5344024242294856E-03
              -8.8131711851572995E-04
               2.5784365908671980E-03
               2.6440367507341114E-03
               2.3175720632399155E-04
               1.9990248090769104E-03
              -5.5098650130825906E-04
               1.3981842479847775E-03
               1.7728284575508212E-03
              -9.1821971559157239E-04
              -5.3193566964439736E-03
               1.4152187449399153E-03
               1.5922865459258976E-02
              -9.2804065986113998E-03
               1.7760606334456487E-03
               3.7899635078954448E-03
               9.7827302711060737E-05
              -4.6041193784187272E-03
               1.0626916076407492E-02
               1.0974687101215694E-02
               4.7300098832085309E-03
              -1.2053717285523810E-02
               7.7013471063570047E-03
              -5.6964047412817378E-03
               2.5984747211681312E-03
               1.5091757826855995E-03
               5.0381731800342219E-03
              -1.0067641102922858E-03
              -3.9381697340112633E-03
              -5.6957489789781178E-03
              -3.0334871453636264E-04
              -6.9054123238247271E-03
              -3.4229259048187293E-03
              -4.9092119382941508E-03
               6.9907490518294375E-03
              -1.9807576975872580E-03
               1.5874952157642497E-02
              -4.0197452871563004E-03
               6.4562637765591974E-03
              -1.5432622376687325E-02
               1.2475198239691230E-02
               1.1212128303686975E-03
               5.0798389824759614E-04
               5.8964829309697906E-03
               1.0588208516360401E-02
              -6.9846806841882781E-03
               5.5802844355835337E-04
              -4.0933121780072409E-03
              -1.8238041987700605E-04
               7.5352526050979389E-03
              -2.9770067116696212E-03
              -9.2246196720934797E-03
               4.8216216256321155E-03
               1.1974633570068392E-02
               2.4447380850253528E-03
              -1.2920878956623554E-04
              -2.5595225816923767E-02
               2.3058950784703061E-02
              -2.6285531588723979E-03
               2.7356153399588244E-03
              -2.6985479068142412E-03
               3.6500719347506367E-03
              -3.1349446593908413E-04
               3.1936306592659871E-03
               3.5494883933363298E-04
               8.4191425719190478E-03
              -3.0321492533685063E-03
              -7.9746832442406587E-03
              -1.0315316499706626E-03
               1.9254840383474202E-03
               2.1257891092223025E-03
               1.1642904300912143E-02
               5.4507851756453408E-03
               4.2265295208420117E-04
               1.2137638112906634E-03
               3.6972990292663539E-03
              -1.5649056523885593E-02
               7.3512748511147244E-03
              -3.9436819199674487E-03
               1.5326002118683435E-03
              -1.2076582673839785E-02
               3.0548936675671191E-03
               5.5047360717936531E-03
              -6.6494531171771816E-04
               1.3948921033192979E-02
              -1.0061869847182317E-02
               3.1932014245384744E-03
               4.7101566233697829E-03
              -1.4277670058609740E-03
               1.6611812975232364E-02
              -5.2947343892406629E-03
              -1.6342208924826906E-02
              -1.0180328998215693E-02
               1.8340933163643360E-02
              -5.9384030135018681E-03
               5.6345338939136781E-03
               3.4193650382111028E-03
               6.6508223759668226E-03
              -1.9056082143432136E-03
              -1.4134830501265727E-03
               7.1745295437524665E-03
              -1.5999347356847847E-02
              -9.3184823752294789E-03
               7.0025694632291410E-03
              -1.0840189592185360E-02
               1.2384262256117915E-02
               1.4711184701258408E-03
               2.4602402790175515E-03
              -5.1654705886186539E-03
               6.5275041240998605E-04
               9.8815623598929843E-04
              -1.4646258236818066E-02
               7.0872117947987862E-03
              -3.9172547374568935E-03
               2.4249611104717436E-04
              -2.9646674907585682E-03
               1.1584062035701977E-02
               5.6681816976216371E-03
              -6.5252234759553118E-03
               1.1823904783837417E-02
               1.0016119984988419E-03
               1.7581786424716171E-03
               6.4073825743570243E-03
              -4.8539746345310142E-03
              -1.8040971160274016E-03
              -5.8175292501321313E-03
              -2.2525885258053266E-03
               7.8541097198492923E-04
               6.6580954207576450E-03
              -2.7281842019091403E-03
               3.0251846017715707E-03
               4.0329749295908192E-03
              -8.8860624296439820E-03
               1.8410522799340713E-03
              -1.3613948848805339E-02
               6.1766067096291968E-03
               6.7607907464916021E-03
              -8.4690653286998065E-03
              -6.2983764803742120E-04
               2.2922366976549452E-02
              -2.6805953018629401E-03
               3.9234769131784675E-04
              -1.2718248392510647E-02
               4.0081168552183601E-04
              -1.5810832566743522E-03
               1.0681952182397253E-02
               9.2878330304929143E-03
               9.5902393854377865E-04
              -3.5226018911422652E-03
               3.7740353358950438E-03
               3.6747539788596316E-03
              -2.5666338323064321E-03
              -5.3715730470991693E-03
               7.2095756340070779E-03
              -1.0786196050371747E-03
              -3.0041381384869931E-03
              -6.8614746004636820E-04
              -3.9320014205418584E-03
              -2.2719632100732358E-03
              -1.8110451034792139E-04
               1.8449916178624823E-03
               8.5969783422706614E-03
               1.6892310480997347E-02
              -1.5661668004930778E-02
              -1.5798206080802839E-02
               1.2080489310133771E-02
              -5.7657032326791690E-03
              -7.6999251906006002E-03
              -1.6923388005087986E-03
              -1.2354454771821397E-03
              -3.4193430521906889E-03
               1.4761735087545547E-02
               1.1159417494495257E-02
               2.4285635756188333E-03
              -9.4408791092677052E-03
              -6.0878027240156962E-03
              -5.5663554915047955E-03
               2.2657296067618779E-03
               1.6302535575859476E-03
              -2.7597739338898104E-02
               1.1669315745871673E-02
               8.6311492299606853E-03
              -1.3682645163796690E-02
               7.4722267486981436E-03
               1.8865396284777194E-02
              -2.0887297524446371E-03
               3.3202599035952358E-03
               8.4604872711310716E-03
              -1.4800919317417355E-02
               7.8856304786786551E-03
              -4.0449576320288885E-03
               8.7694362548105531E-03
              -7.9859603038992218E-04
               3.4777998559265026E-03
              -2.4429743541488453E-03
               2.4151542016340860E-04
               3.0980350022421156E-03
               4.1062969267681741E-03
               5.6820445649341097E-03
               4.0995747576579320E-03
              -2.7959343608140180E-04
              -2.6706538156010557E-03
              -6.1629302614757244E-03
               6.6285697569802727E-03
               5.6016158683510342E-03
               6.8563041858395127E-03
              -6.9732669288461949E-03
               1.1098973629075633E-02
               2.4785946735116724E-03
               1.4789219441280220E-02
              -1.9986771407528433E-03
              -4.4151187073000978E-03
              -3.1530795078408003E-03
              -7.5945682755984897E-03
              -1.8787752431496986E-03
              -1.1266774925533404E-02
              -6.5622788152929455E-04
               7.3447713351568328E-03
               3.3047530474897093E-03
               6.2139399603496999E-03
              -6.1785505171902989E-03
              -1.0067711851405300E-02
              -2.7373453838629679E-05
               5.2279380985830338E-03
              -3.4423013742223038E-03
              -6.2547141466804375E-03
               2.6166053094436254E-03
              -2.6655309003226629E-03
               9.7805303205297737E-03
               3.6887499596101581E-03
              -4.7127335913344642E-03
              -4.3043617824485405E-03
               8.7714941285007061E-03
               5.9133065813255653E-04
              -1.5730728262533408E-02
              -4.7062814107169737E-05
               1.2589864027652144E-02
               1.7605459886656696E-02
              -1.6300914190317511E-02
              -4.0036834379422060E-03
               2.9462279866632299E-03
              -1.6285261670377197E-02
               4.3474092224407021E-03
              -5.1689689345687431E-03
               6.2438481836019216E-03
               9.3052724572919160E-03
              -8.1954284005098278E-03
               1.3275859932142791E-03
               1.7783610004384900E-03
               1.3958976306301732E-02
               1.6624295242179217E-03
               8.0888067566378483E-03
              -7.2773743717400698E-03
              -1.8773605198474774E-03
              -1.1757810539122029E-02
               1.1408548903979217E-02
               7.7921588077118640E-03
               3.2210446648875911E-04
              -3.8899394816931760E-03
               3.4952196780321325E-03
              -4.1122060398460876E-03
               4.8727774495495764E-03
              -3.1624136951311638E-03
               4.8190397911377358E-03
              -6.6825260644383820E-03
              -5.5495805643474613E-03
              -4.4333925917633731E-03
              -1.0120831015796453E-02
              -1.3299977341945952E-03
               6.8947210959666759E-03
              -7.7115035893494084E-03
               1.2997535568215599E-02
              -8.0799478966340679E-03
               1.3039050066663798E-02
               1.3230696946033536E-04
               3.2260851040687914E-03
              -1.7580969235889002E-03
               1.4292948026691601E-03
               1.0491160961611531E-02
               1.7462453440681093E-03
               1.6081986739001225E-03
              -4.9913151379054601E-04
              -1.0402252719829454E-02
              -1.5934983652431108E-03
               7.6855409893848781E-03
              -4.6798086707713731E-03
               1.1321259414794305E-03
               1.0353917801704497E-02
              -5.3984348355886414E-03
              -9.1162073015853582E-05
               2.2878497235840011E-03
               5.2889918372128969E-03
              -2.3507454870013772E-03
               3.3330337767655161E-03
              -1.2588680271862559E-03
              -3.4954348082241807E-03
              -7.6855519074924203E-03
               3.3231843606249304E-03
               1.6046772677420767E-03
               9.0305897030396841E-03
               8.6736220862720318E-03
              -2.1715331268559148E-02
               6.0393225680091612E-03
               1.5281777387669128E-02
               3.7100943672700695E-03
              -1.0276799832413466E-04
              -1.6998303026694261E-04
              -9.6469445444940499E-03
               8.7979060892913880E-03
              -3.4043137979127090E-04
              -9.6205200769148187E-03
               1.8117652380219439E-03
              -1.5746930027925585E-02
               1.4821121366565429E-03
               7.1254755287037640E-03
               8.8775237125375862E-03
              -5.4508423992583287E-03
              -4.8268869472435387E-03
              -1.1151799513536721E-02
               1.3222781145769264E-02
               2.3026013489816214E-03
              -1.0755472755077091E-03
               5.5868550005430230E-03
               1.8582439792920228E-03
              -2.4675654001759580E-03
              -3.4673084546338840E-03
               1.8981768088959688E-03
               1.4320095920851238E-04
               1.5853254382143585E-03
              -9.2656621629037860E-04
               3.2640029580237322E-03
              -5.6781402824514096E-04
              -2.1914997397708635E-05
               6.5620831814075849E-03
              -3.3990047110627280E-03
              -5.3840837387940290E-03
               2.3261421472098539E-03
               2.2676528103928889E-03
               6.9625714118061420E-03
               3.2429906953084528E-04
               1.5446025621845478E-03
              -1.4579058745575010E-02
              -3.1900088910183470E-03
               1.4145947227778418E-03
              -9.4782879012162147E-03
               1.7320978582809145E-02
               9.3124210194145737E-03
              -1.9985551293373854E-04
               8.6581407930149262E-03
              -6.5016613746116869E-03
              -8.5164566493023119E-03
               3.7341934400882456E-03
               2.1293331253016824E-03
              -2.2611717759869030E-03
              -6.5225180025250493E-03
              -5.5477920553571869E-03
               1.9566303732523001E-02
              -7.5448494802682932E-03
               6.4425290204918342E-02
         &END THERMOSTAT_ENERGY
         &RNG_INIT
Wiener process for Thermostat # 1        1 F T T  -4.3866331554119464E-01        3463026290.0         996283881.0        3077134961.0        1575188103.0         352198642.0        1255594993.0             12345.0             12345.0             12345.0             12345.0             12345.0             12345.0             12345.0             12345.0             12345.0             12345.0             12345.0             12345.0
Wiener process for Thermostat # 2        1 F T T   6.1664168869435698E-01         581397078.0        3867423482.0         327967633.0        1486938113.0          26429212.0        4093174459.0        3692455944.0        1366884236.0        2968912127.0         335948734.0        4161675175.0         475798818.0        3692455944.0        1366884236.0        2968912127.0         335948734.0        4161675175.0         475798818.0
Wiener process for Thermostat # 3        1 F T T   2.0518696979926636E+00        1062843694.0        3278483557.0        2630284801.0         342499437.0         508306288.0         570022504.0        1015873554.0        1310354410.0        2249465273.0         994084013.0        2912484720.0        3876682925.0        1015873554.0        1310354410.0        2249465273.0         994084013.0        2912484720.0        3876682925.0
Wiener process for Thermostat # 4        1 F T T   8.6483655468840070E-01         858988242.0         878260951.0        1341305949.0        1687735708.0        1261279903.0        1615458589.0        2338701263.0        1119171942.0        2570676563.0         317077452.0        3194180850.0         618832124.0        2338701263.0        1119171942.0        2570676563.0         317077452.0        3194180850.0         618832124.0
Wiener process for Thermostat # 5        1 F T T  -7.2623034709222295E-02        3503246388.0        3640749438.0          80160185.0        4050541932.0        1809135917.0         826251710.0        1597262096.0        3906379055.0        3312112953.0        1016013135.0        4099474108.0         275305423.0        1597262096.0        3906379055.0        3312112953.0        1016013135.0        4099474108.0         275305423.0
Wiener process for Thermostat # 6        1 F T T   2.6094790259997280E+00        1648662560.0         298744963.0         276080774.0        3452610735.0        2129471280.0        4132861437.0          97147054.0        3131372450.0         829345164.0        3691032523.0        3006063034.0        4259826321.0          97147054.0        3131372450.0         829345164.0        3691032523.0        3006063034.0        4259826321.0
Wiener process for Thermostat # 7        1 F T T   1.3118545096244869E+00        4025695046.0        1027992126.0        3217973651.0        2155997853.0        1780084567.0        1907814450.0         796079799.0        2105258207.0         955365076.0        2923159030.0        4116632677.0        3067683584.0         796079799.0        2105258207.0         955365076.0        2923159030.0        4116632677.0        3067683584.0
Wiener process for Thermostat # 8        1 F T T   7.1524753302764935E-02        2631328646.0          66904958.0        3191287979.0        3452779318.0        2048731614.0        3759050068.0        3281794178.0        2616230133.0        1457051261.0        2762791137.0        2480527362.0        2282316169.0        3281794178.0        2616230133.0        1457051261.0        2762791137.0        2480527362.0        2282316169.0
Wiener process for Thermostat # 9        1 F T T  -1.0980465140389938E-01        1977246253.0        1903248984.0        3508262652.0        2466127224.0         300284070.0         767034957.0        3777646647.0        1837464056.0        4204654757.0         664239048.0        4190510072.0        2959195122.0        3777646647.0        1837464056.0        4204654757.0         664239048.0        4190510072.0        2959195122.0
Wiener process for Thermostat # 10       1 F T T   1.9081094228418396E+00         405211316.0        3215252316.0        3029076279.0        3899943421.0         886526099.0         586515832.0        4215590817.0        3862461878.0        1087200967.0        1544910132.0         936383720.0        1611370123.0        4215590817.0        3862461878.0        1087200967.0        1544910132.0         936383720.0        1611370123.0
Wiener process for Thermostat # 11       1 F T T  -5.3344054384789541E-01        3450000619.0        1059116059.0        3916567347.0         635813254.0        3901690603.0        3696418470.0        1683636369.0         362165168.0         814316280.0         869382050.0         980203903.0        2062101717.0        1683636369.0         362165168.0         814316280.0         869382050.0         980203903.0        2062101717.0
Wiener process for Thermostat # 12       1 F T T   8.9448207812820613E-01        1696219248.0        1783691089.0        1685873716.0        1285524479.0        2726140602.0        4269630803.0         272317999.0         166758548.0         310112982.0         201045826.0        1680231254.0         118290799.0         272317999.0         166758548.0         310112982.0         201045826.0        1680231254.0         118290799.0
Wiener process for Thermostat # 13       1 F T T  -1.0297203341400047E+00        4019568919.0        3484227797.0         947541978.0        4224885921.0        2127446270.0         502669027.0        2245755202.0        1652682525.0        2865544364.0         721509566.0         209733568.0         592362218.0        2245755202.0        1652682525.0        2865544364.0         721509566.0         209733568.0         592362218.0