 # Version information for this restart file 
 # current date 2022-11-29 22:08:34.126
 # current working dir /scratch/work/courses/CHEM-GA-2671-2022fa/sl9736/comp-lab-class/Week12/Runs/Proton
 # Program compiled at                              Sat Dec 12 18:27:15 EST 2020
 # Program compiled on                                         cs001.nyu.cluster
 # Program compiled for                                                nyu-intel
 # Source code revision number                                       git:8c64c6e
 &GLOBAL
   PRINT_LEVEL  LOW
   PROJECT_NAME proton_aimd_1ns_every0.5fs
   RUN_TYPE  MD
   WALLTIME 21600
 &END GLOBAL
 &MOTION
   &GEO_OPT
     OPTIMIZER  BFGS
     MAX_ITER  100
     MAX_DR     3.0000000000000001E-03
     &BFGS
     &END BFGS
   &END GEO_OPT
   &MD
     ENSEMBLE  NVT
     STEPS  2000
     TIMESTEP     4.9999999999999994E-01
     STEP_START_VAL  1999
     TIME_START_VAL     9.9949999999998238E+02
     ECONS_START_VAL    -1.1027506064962838E+03
     TEMPERATURE     3.0000000000000000E+02
     &THERMOSTAT
       TYPE  GLE
       REGION  MASSIVE
       &GLE
         NDIM  5
         A_SCALE     1.0000000000000000E+00
         A_LIST     1.8595758612559999E+02    2.7263853498399998E-01    1.1526100454610001E+01   -3.6414578262600003E+01 \
             2.3173375816020001E+02
         A_LIST    -2.7809524712060002E-01    8.5951591808710006E-05    7.2189048017650004E-01   -1.9844539343859999E-01 \
             4.2409257583420001E-01
         A_LIST    -1.4825808131210000E+01   -7.2189048017650004E-01    1.3590902121280000E+00    5.1498896280349999E+00 \
            -9.9949268450990001E+00
         A_LIST    -1.0372189126880000E+01    1.9844539343859999E-01   -5.1498896280349999E+00    2.6661910891169999E+01 \
             1.1507715495310000E+01
         A_LIST     2.1801346360420001E+02   -4.2409257583420001E-01    9.9949268450990001E+00   -1.1507715495310000E+01 \
             3.0958394565589998E+02
         &THERMOSTAT_ENERGY
               1.0309046849640438E-03
               3.4116909556045627E-03
               3.1870316202130722E-03
               5.1598642895717801E-04
              -1.1795352106121324E-02
               9.2314792647326741E-03
              -6.3026241894551579E-03
              -2.2273915287344898E-03
               1.0570670280608957E-02
               5.7775172020398833E-03
               1.1031517393998359E-02
              -2.5875655988134624E-03
              -1.1876070744122507E-03
              -2.2696691558892457E-03
               2.4652553062857688E-03
              -9.0049276966324334E-03
               4.7959414157181879E-03
               3.2933692033796126E-03
               3.8439606468067145E-03
              -7.3960452117079190E-03
              -2.6821642908669129E-03
               1.1932801804763164E-02
              -1.7114847773316511E-02
              -8.8965971566668765E-03
               6.8269279654909407E-03
              -6.0356311103413763E-03
               7.7042454000325741E-03
              -1.9170959040254914E-03
               3.6867705107066690E-03
              -5.6361384411582382E-04
               8.3851461333270122E-03
              -1.1198468065168969E-02
               1.4228787557129059E-03
               2.2653501367456345E-03
              -4.6907820095802889E-03
               1.2047502803491093E-02
               5.8640890087365677E-05
               7.9912350459889381E-04
              -1.0205500380586071E-03
               9.4198029682320533E-03
              -4.5576405743918205E-03
              -1.1411591783506663E-02
               4.7888230396227541E-05
               1.0288844264181323E-02
               2.2784110651283326E-03
               4.2466268906019879E-03
              -2.0424205044512435E-03
               3.3661050054583251E-03
               6.3212461660139283E-03
               4.3894398831677041E-03
               2.8996224263488374E-03
              -3.8270344370297639E-03
              -6.0784197603968408E-03
               1.6955973626676387E-02
              -8.4798440689688812E-03
              -3.0199061320920940E-04
              -3.5316801414445641E-03
              -5.3713196847642057E-03
               3.3111095219054898E-03
               7.7591806137234072E-03
              -5.0980850654945902E-03
              -4.8907850185596373E-03
               1.5975522635865484E-02
              -6.2244124836177261E-03
               3.0085779173350952E-03
              -2.5274473745846696E-03
              -1.5213349862285680E-02
               1.3147855109027823E-02
               1.4959238277046675E-02
               2.2617478547673005E-03
              -1.3120633574329530E-02
              -7.1671877462361209E-03
              -4.7140806501859674E-03
               3.5060733569334725E-03
               3.9825944429818243E-04
              -1.1955667989795428E-02
               2.0878622290583685E-02
              -8.0688616517690800E-04
               8.3625389552100266E-03
               1.5302489252968514E-03
              -6.7415398840282442E-03
              -5.4571257713413772E-03
              -4.9405931854758212E-04
              -1.9386553724424053E-03
               2.6475811477632283E-03
               5.4634079143903603E-03
              -7.8949115514215240E-04
              -1.4557853094690413E-02
               6.3701961868408465E-03
               7.5300807441943773E-04
               5.1166343464092564E-03
              -1.0289914456935136E-02
               3.2137395779494615E-03
              -1.8625685612183461E-03
              -9.9233299259141716E-03
               5.6646643469706708E-03
               1.6447415613113258E-02
              -8.4741845322784184E-06
              -1.2788309279547670E-03
               5.0271223499776798E-05
              -1.2282719232181419E-03
              -8.6762324747308925E-03
               2.3403328033611533E-03
               7.2948381044245366E-04
               8.5827932811107345E-04
               1.2007139376082538E-02
              -8.3697804534445621E-04
              -9.4769589498790250E-03
               7.4839064407311046E-03
              -6.3822953806608029E-03
               5.9083388922989101E-03
               1.8238798042978160E-02
              -1.2083521543043742E-02
              -2.5906864709915171E-03
              -4.5768735532194932E-03
               7.4539318780677821E-03
              -1.6127658750652356E-02
               1.5532389360406271E-03
               4.2232959910804635E-03
               1.7118135830690455E-03
               1.2001915875952155E-02
              -9.5800720214153159E-03
               3.0230660120345787E-03
               4.3180540890759247E-04
              -9.7769857579899158E-03
               1.9783996184461281E-03
               2.4605607771845356E-03
               1.6087857877781547E-03
               7.2971389171261499E-04
               5.3596396265921066E-03
              -3.2904726810801654E-03
               7.9296262351341931E-04
              -1.9786260331053091E-03
               2.4873925470452847E-03
               1.4252588271444558E-03
              -1.5752202967974558E-03
              -4.6311572195796291E-03
              -6.8556885537754530E-03
              -6.5112863433956364E-03
               3.0722815549571791E-04
              -5.5456002009316345E-03
               1.9521770759889235E-03
               1.6149671460339091E-02
              -4.6076282416161272E-03
              -2.6196652241116698E-04
              -6.3132159462133391E-03
               7.5251862225449622E-03
               5.2753569762072280E-03
               3.2496522233054067E-04
              -5.9265702482597165E-03
              -1.6852854168012563E-02
               1.0103297115411398E-02
               3.7835278118228100E-03
              -5.6322513298656673E-03
              -3.6593553421728525E-03
              -5.2692861397640664E-03
               6.8318917873573838E-03
               2.8722609132983473E-03
               2.6937241874595359E-03
               3.8579597483035578E-03
              -1.1812377633818186E-02
              -1.1159005534387306E-03
              -1.3247842655339074E-03
              -2.9948147044690419E-03
               1.0597650982118425E-02
               1.2686298602509064E-02
               8.4530989264511268E-03
              -1.9653519048367825E-02
              -3.8790720499194743E-03
               3.2718453826662990E-03
              -9.8454702467024556E-03
              -3.8561845946966555E-03
               5.7241006961162065E-03
              -4.4857283555535922E-03
               5.7834537893953000E-03
              -2.7973755244847711E-03
               4.9357761700385711E-03
              -2.1302166590034775E-03
              -8.4711816109567955E-04
               5.5353608867270108E-03
               6.0355064958887870E-03
              -1.2338025426143003E-03
               1.0853461413880739E-02
              -1.1626084187765626E-02
               1.3885419508192874E-02
              -1.8848758567235576E-04
               2.8919802948196608E-04
              -6.2981288997892865E-03
              -7.9715797459823622E-03
               2.8195180943696706E-04
               2.6765250814994295E-03
               2.2742416914474420E-03
              -4.1236549232106807E-03
               1.0467400847718005E-02
               6.9268660836890742E-03
              -1.1066287323190743E-02
              -5.7382343800815592E-03
               6.9348742411671788E-04
               8.4260117884520560E-03
               9.7981905672727245E-04
              -7.6018115321209558E-03
              -2.2204745836156433E-03
               5.3165329689784735E-03
               1.3079012805604408E-03
              -4.0270379079856066E-03
               1.6242849013670443E-03
              -6.5892497782955757E-03
               1.3691284460019895E-03
              -3.8077434291833492E-03
              -1.1866949745116860E-03
               8.0930933890352042E-03
              -2.7712843743922999E-03
               9.3880713605332365E-03
              -1.1401010618786940E-02
               1.2836719839169546E-02
              -4.5762696043257630E-03
              -9.9655415278257810E-03
               8.1630612487967810E-03
               3.4444519385487204E-03
              -5.8977491572393672E-03
              -2.2970634370432031E-03
              -9.1836183452530641E-04
               2.8102261067641000E-03
               2.4261651324182891E-03
               2.1306859306766604E-04
               2.0042049631276465E-03
               9.3521536278563496E-05
               1.3322492351136139E-03
               1.3450107523932172E-03
              -1.2168985471729065E-03
              -5.2786100467982358E-03
               1.3863279201603578E-03
               1.5768456274211778E-02
              -9.0963809092122344E-03
               2.2610614572397920E-03
               3.4352867406875431E-03
               8.3609087195802287E-05
              -4.5407465952194224E-03
               1.0577114775255528E-02
               1.0894714750274519E-02
               4.6894518380041729E-03
              -1.2375396443976521E-02
               7.1721583035796784E-03
              -6.5147245230069437E-03
               2.4224287660623996E-03
               2.2815007128159483E-03
               4.9006986958470642E-03
              -8.2498700240239654E-04
              -3.8725866118565549E-03
              -5.8849085280080048E-03
              -2.1450494998843050E-04
              -6.8472661357988360E-03
              -3.5513845466623368E-03
              -5.9860091305746514E-03
               7.2268484427277192E-03
              -2.0676436058073172E-03
               1.5788745361634719E-02
              -4.0318818414170187E-03
               6.5579473855956619E-03
              -1.5363047520445738E-02
               1.2670049460892667E-02
               1.0177261833477142E-03
               1.6097096938303426E-04
               6.6466749001555300E-03
               1.0603964621747258E-02
              -6.9921286571038377E-03
               2.1293770597029628E-04
              -4.4242937365309414E-03
               2.5202043357700578E-04
               7.2678449765547909E-03
              -3.1672027385491650E-03
              -9.2824185704076488E-03
               4.8442823358233796E-03
               1.2103752222984966E-02
               2.4680757736867554E-03
              -2.0043103048303753E-04
              -2.6015689748811705E-02
               2.3067709460322786E-02
              -2.8636646984149714E-03
               2.7327210501429246E-03
              -3.2611345138422025E-03
               3.9201586469567841E-03
              -1.9699759145339605E-04
               3.0548378949908092E-03
              -5.5395604126173630E-04
               8.6526230462387350E-03
              -2.2015228199566521E-03
              -7.9646173852727393E-03
              -1.0625782905381057E-03
               1.9695438789302470E-03
               2.1718555078443645E-03
               1.1519938771265404E-02
               5.9737140955071644E-03
               6.9262040162841685E-04
               1.6445459636791877E-03
               3.7976338543928624E-03
              -1.4992785908428632E-02
               7.3222262451021767E-03
              -4.6291284530779186E-03
               1.4780985665426741E-03
              -1.2262428050027226E-02
               3.0527813555347983E-03
               5.4851101393041746E-03
              -9.0762416858831073E-04
               1.3416801371307447E-02
              -1.0228642452684929E-02
               3.1617841840685052E-03
               4.6927823948278401E-03
              -1.1185187592780241E-03
               1.6382335255759023E-02
              -5.4299592817139142E-03
              -1.6428758201293955E-02
              -9.9331564102686960E-03
               1.8387287009315932E-02
              -5.5922686457063660E-03
               5.1285399496632670E-03
               3.6677963850268933E-03
               6.1736001734631549E-03
              -1.9097912634796787E-03
              -1.4934838736770945E-03
               7.3169500819843959E-03
              -1.6412657549077697E-02
              -9.2092115909938425E-03
               6.8768087085643737E-03
              -1.1379791300586285E-02
               1.2747193775761782E-02
               1.4341720703902566E-03
               2.6047341849123207E-03
              -5.1343296595940703E-03
               6.2077549278430355E-04
               7.9257229632431064E-04
              -1.4536954594570172E-02
               7.1373269297439418E-03
              -3.9140761373572088E-03
               2.3775019951167593E-04
              -2.8768630345075009E-03
               1.1683563196837719E-02
               5.6052432605444508E-03
              -6.0133701583080321E-03
               1.2032035249185688E-02
               1.0873910861181626E-03
               1.8383573327335598E-03
               6.7152186483349693E-03
              -5.0468064560594723E-03
              -1.7075455111654229E-03
              -6.1361547206485300E-03
              -1.9176145426035545E-03
               8.1191668620738853E-04
               6.5474612469571883E-03
              -3.8764647420076173E-03
               3.0169274801380855E-03
               4.0654881954368940E-03
              -8.3077683164115550E-03
               1.2851309305383755E-03
              -1.3700686696123386E-02
               4.9254207207484824E-03
               6.7506416855409538E-03
              -8.7614312016259886E-03
              -4.6079720037676139E-04
               2.2885665146177341E-02
              -2.5686125992589485E-03
               1.6384934895107906E-04
              -1.3679814221114748E-02
               6.1576281933355451E-04
              -1.6657716906104752E-03
               1.0615207403783581E-02
               8.9199989497226306E-03
               1.0112552752312898E-03
              -3.5285741899787333E-03
               4.0249204366152209E-03
               3.6457547661232904E-03
              -2.6297654373837616E-03
              -5.3328190229926797E-03
               7.1980306668993467E-03
              -1.0690721324506428E-03
              -2.8240083096859373E-03
              -6.6679728735419090E-04
              -3.9159314930358258E-03
              -2.5261700665527983E-03
              -2.5946155443613448E-04
               1.9258674630815542E-03
               8.4104347550717200E-03
               1.7202028276269876E-02
              -1.6150814502131305E-02
              -1.5331206673480320E-02
               1.2049630204221845E-02
              -5.7328357830924272E-03
              -7.8658841766995873E-03
              -1.5912591843828656E-03
              -1.5015816251451263E-03
              -3.3942352329336439E-03
               1.4425285435654748E-02
               1.1160327814193979E-02
               2.6158758498693807E-03
              -8.8549700758376593E-03
              -6.0670862009657555E-03
              -5.4992839307605500E-03
               2.2490611653887449E-03
               1.5986533441003014E-03
              -2.6900964250078974E-02
               1.1797909172763698E-02
               8.9177678319292460E-03
              -1.3648593314870811E-02
               7.3664134620871425E-03
               1.9189997394087138E-02
              -1.9308755860925791E-03
               3.0094966547155010E-03
               8.2631675450115707E-03
              -1.4808096384890423E-02
               7.9088645267268824E-03
              -3.5536196624255684E-03
               8.4392119382752165E-03
              -9.7968351376142887E-04
               3.6533356472673272E-03
              -2.3376572292428755E-03
               4.6304074780556347E-04
               3.1687435387571924E-03
               4.0255804372811253E-03
               5.7527207416707910E-03
               3.4596637557963317E-03
              -5.9319955561035827E-04
              -2.6627999464792357E-03
              -6.2890781089338316E-03
               6.8096763393065080E-03
               5.4204417923881931E-03
               6.5907972234769243E-03
              -7.0213177878419670E-03
               1.1198034714065585E-02
               2.4623195794111299E-03
               1.4550310435238637E-02
              -2.2550115001920700E-03
              -4.3467539861815983E-03
              -3.2001560367899760E-03
              -7.1923949570734487E-03
              -2.3872285567097039E-03
              -1.1809608339025432E-02
              -1.3388228566831334E-03
               7.7889631998832327E-03
               3.1626824231077428E-03
               6.3384198460978538E-03
              -6.0519560142563746E-03
              -1.0022237840329016E-02
               7.2807799915355692E-04
               5.2880688069312483E-03
              -3.4097156909711547E-03
              -6.3609447560589562E-03
               2.5351763341443642E-03
              -2.3828171025072438E-03
               9.7498920640847093E-03
               3.7642261463286721E-03
              -4.9644149775184667E-03
              -4.2984629907899998E-03
               8.6785773363266001E-03
               4.4699564293562179E-04
              -1.5637029965382642E-02
              -3.1380234729362887E-05
               1.2159057649294508E-02
               1.7681218503854460E-02
              -1.7382594768476325E-02
              -3.9848724332964495E-03
               3.0037017642000632E-03
              -1.6217711972262329E-02
               4.0023128712557803E-03
              -4.9636545599772708E-03
               6.1980146494803792E-03
               9.1970336248988691E-03
              -8.1622721175136186E-03
               1.6069793601807441E-03
               1.2541810422998460E-03
               1.4470991462556357E-02
               1.7363959009530471E-03
               8.0216904453946532E-03
              -7.3727620647667871E-03
              -1.9254577297780611E-03
              -1.1946718303517699E-02
               1.1413981082526829E-02
               7.7902788778094218E-03
               6.2129369861273675E-04
              -3.3243552251495884E-03
               3.6007282825792058E-03
              -4.1329095081439277E-03
               4.6256940578568769E-03
              -3.6878164100260977E-03
               5.0023748150220936E-03
              -6.4791633588942472E-03
              -5.2609907817756409E-03
              -4.5503724443559240E-03
              -9.8737625372686492E-03
              -1.4267262659473793E-03
               7.0786999174881435E-03
              -7.6233631408500332E-03
               1.2994704704875345E-02
              -8.1572223691900592E-03
               1.3156723392287730E-02
               2.1416132735088656E-04
               2.9256670221857154E-03
              -1.7703281302894466E-03
               1.4573956778978997E-03
               1.0361044876179398E-02
               1.6119710613173017E-03
               1.6030738592425211E-03
              -1.0411323234082752E-03
              -1.0173134399282651E-02
              -1.8993358490903998E-03
               7.7927575827498518E-03
              -4.7407743884603903E-03
               1.1824940577645445E-03
               1.0530100307465685E-02
              -5.5151123622253417E-03
              -2.7698602376840571E-04
               2.3154533559428337E-03
               5.5528374649385379E-03
              -2.0411651194512581E-03
               3.4728319833846437E-03
              -1.3422273734744992E-03
              -3.7229935070818882E-03
              -8.3520025654271763E-03
               3.4667884990729446E-03
               1.4639636391749972E-03
               9.1543951443318703E-03
               8.7565748183501425E-03
              -2.1293828019772598E-02
               6.3244408282974798E-03
               1.5324689206526515E-02
               3.4086863589104189E-03
              -2.3204950271295846E-04
               4.7470237413805471E-05
              -1.0121779480847826E-02
               8.6598349898296002E-03
              -3.7074029276330247E-04
              -9.5650467379539104E-03
               1.1855159607531973E-03
              -1.5382713295017189E-02
               1.5191407535049147E-03
               6.8841584732819957E-03
               8.7503861550708266E-03
              -5.5031037537929808E-03
              -4.7347903611187400E-03
              -1.1109401233658755E-02
               1.1388142495965205E-02
               2.6888814974827119E-03
              -1.9503914541852184E-03
               5.7302418451172961E-03
               2.3380373398056544E-03
              -2.4942615617780171E-03
              -3.3690225282623498E-03
               1.8110002988159909E-03
              -2.0579016339573259E-04
               1.5816647491051980E-03
              -9.0673468757029787E-04
               3.2753744708518911E-03
              -4.8243687999676463E-04
               3.2227578144220680E-04
               6.4915469941664002E-03
              -3.1644760109749421E-03
              -5.2405028655432059E-03
               1.8604877422961086E-03
               2.9110470389151254E-03
               7.5222003213671991E-03
               3.6010883900869221E-05
               1.9589757410052857E-03
              -1.4629631228525005E-02
              -3.3895890341755280E-03
               1.3891992952767332E-03
              -9.3899923851738665E-03
               1.7399245991111308E-02
               9.2714698107564456E-03
              -2.1430198848374556E-04
               8.3580712351334144E-03
              -6.5796432808596867E-03
              -8.1983997720864975E-03
               3.3973285588555190E-03
               2.1130328671368284E-03
              -2.9821738295618175E-03
              -5.9081146838265474E-03
              -5.5125123989303139E-03
               1.9428062347692305E-02
              -7.5496947887528061E-03
               6.4639706691705004E-02
         &END THERMOSTAT_ENERGY
         &RNG_INIT
Wiener process for Thermostat # 1        1 F T T  -1.3877964172148927E+00        3819968671.0        1923139303.0        2505174482.0        1129753110.0        1102497896.0        2318485114.0             12345.0             12345.0             12345.0             12345.0             12345.0             12345.0             12345.0             12345.0             12345.0             12345.0             12345.0             12345.0
Wiener process for Thermostat # 2        1 F T T   5.9690975612399577E-01        1863048650.0        1167059563.0        4156553466.0        2659491592.0        2500563110.0        2967422577.0        3692455944.0        1366884236.0        2968912127.0         335948734.0        4161675175.0         475798818.0        3692455944.0        1366884236.0        2968912127.0         335948734.0        4161675175.0         475798818.0
Wiener process for Thermostat # 3        1 F T T  -1.9577134425325560E-01        2029679022.0        1992813296.0        1475024831.0        3744841000.0        4231717232.0        1872789393.0        1015873554.0        1310354410.0        2249465273.0         994084013.0        2912484720.0        3876682925.0        1015873554.0        1310354410.0        2249465273.0         994084013.0        2912484720.0        3876682925.0
Wiener process for Thermostat # 4        1 F T T  -5.5423907268054418E-01         972191078.0        3239779000.0        2283144792.0        4029872124.0        2868550739.0         388907277.0        2338701263.0        1119171942.0        2570676563.0         317077452.0        3194180850.0         618832124.0        2338701263.0        1119171942.0        2570676563.0         317077452.0        3194180850.0         618832124.0
Wiener process for Thermostat # 5        1 F T T  -3.6874052824979625E-01         246061856.0        2033992607.0        4208640487.0        3425480013.0        1713937449.0        3033523858.0        1597262096.0        3906379055.0        3312112953.0        1016013135.0        4099474108.0         275305423.0        1597262096.0        3906379055.0        3312112953.0        1016013135.0        4099474108.0         275305423.0
Wiener process for Thermostat # 6        1 F T T   5.7875332706651861E-01        4268450248.0        1240555256.0        2123119467.0         299173953.0        2368881629.0        2698044585.0          97147054.0        3131372450.0         829345164.0        3691032523.0        3006063034.0        4259826321.0          97147054.0        3131372450.0         829345164.0        3691032523.0        3006063034.0        4259826321.0
Wiener process for Thermostat # 7        1 F T T  -1.8983145396195047E+00        4260312323.0         705196258.0         937296972.0        1373994383.0        3179698350.0        3757299263.0         796079799.0        2105258207.0         955365076.0        2923159030.0        4116632677.0        3067683584.0         796079799.0        2105258207.0         955365076.0        2923159030.0        4116632677.0        3067683584.0
Wiener process for Thermostat # 8        1 F T T  -3.3116685260855833E-01        2351531572.0        3477839446.0        1021048571.0        1975906828.0        1893564842.0         777663015.0        3281794178.0        2616230133.0        1457051261.0        2762791137.0        2480527362.0        2282316169.0        3281794178.0        2616230133.0        1457051261.0        2762791137.0        2480527362.0        2282316169.0
Wiener process for Thermostat # 9        1 F T T   1.4386427466100791E+00        3265425123.0        2999969280.0        3048908474.0        1047403656.0         134736569.0        4209884843.0        3777646647.0        1837464056.0        4204654757.0         664239048.0        4190510072.0        2959195122.0        3777646647.0        1837464056.0        4204654757.0         664239048.0        4190510072.0        2959195122.0
Wiener process for Thermostat # 10       1 F T T  -2.3947144259907721E-01        2825100143.0        2025717467.0        3827127036.0        1422979577.0        1026966836.0        1481957392.0        4215590817.0        3862461878.0        1087200967.0        1544910132.0         936383720.0        1611370123.0        4215590817.0        3862461878.0        1087200967.0        1544910132.0         936383720.0        1611370123.0
Wiener process for Thermostat # 11       1 F T T   2.8146058156813852E-01        3161233422.0        2404453347.0        1673723662.0         906337025.0          73303549.0        1016746719.0        1683636369.0         362165168.0         814316280.0         869382050.0         980203903.0        2062101717.0        1683636369.0         362165168.0         814316280.0         869382050.0         980203903.0        2062101717.0
Wiener process for Thermostat # 12       1 F T T  -6.6211933450441895E-01         208754144.0        1983222026.0        1378772639.0         460703296.0         651350573.0        3898252829.0         272317999.0         166758548.0         310112982.0         201045826.0        1680231254.0         118290799.0         272317999.0         166758548.0         310112982.0         201045826.0        1680231254.0         118290799.0
Wiener process for Thermostat # 13       1 F T T   2.2418582236869027E-02         545702192.0         878923556.0         464381839.0        1267067492.0        3004786620.0        2258194530.0        2245755202.0        1652682525.0        2865544364.0         721509566.0         209733568.0         592362218.0        2245755202.0        1652682525.0        2865544364.0         721509566.0         209733568.0         592362218.0