 # Version information for this restart file 
 # current date 2022-11-29 22:07:51.888
 # current working dir /scratch/work/courses/CHEM-GA-2671-2022fa/sl9736/comp-lab-class/Week12/Runs/Proton
 # Program compiled at                              Sat Dec 12 18:27:15 EST 2020
 # Program compiled on                                         cs001.nyu.cluster
 # Program compiled for                                                nyu-intel
 # Source code revision number                                       git:8c64c6e
 &GLOBAL
   PRINT_LEVEL  LOW
   PROJECT_NAME proton_aimd_1ns_every0.5fs
   RUN_TYPE  MD
   WALLTIME 21600
 &END GLOBAL
 &MOTION
   &GEO_OPT
     OPTIMIZER  BFGS
     MAX_ITER  100
     MAX_DR     3.0000000000000001E-03
     &BFGS
     &END BFGS
   &END GEO_OPT
   &MD
     ENSEMBLE  NVT
     STEPS  2000
     TIMESTEP     4.9999999999999994E-01
     STEP_START_VAL  1997
     TIME_START_VAL     9.9849999999998249E+02
     ECONS_START_VAL    -1.1027506064962838E+03
     TEMPERATURE     3.0000000000000000E+02
     &THERMOSTAT
       TYPE  GLE
       REGION  MASSIVE
       &GLE
         NDIM  5
         A_SCALE     1.0000000000000000E+00
         A_LIST     1.8595758612559999E+02    2.7263853498399998E-01    1.1526100454610001E+01   -3.6414578262600003E+01 \
             2.3173375816020001E+02
         A_LIST    -2.7809524712060002E-01    8.5951591808710006E-05    7.2189048017650004E-01   -1.9844539343859999E-01 \
             4.2409257583420001E-01
         A_LIST    -1.4825808131210000E+01   -7.2189048017650004E-01    1.3590902121280000E+00    5.1498896280349999E+00 \
            -9.9949268450990001E+00
         A_LIST    -1.0372189126880000E+01    1.9844539343859999E-01   -5.1498896280349999E+00    2.6661910891169999E+01 \
             1.1507715495310000E+01
         A_LIST     2.1801346360420001E+02   -4.2409257583420001E-01    9.9949268450990001E+00   -1.1507715495310000E+01 \
             3.0958394565589998E+02
         &THERMOSTAT_ENERGY
               1.0297745579191354E-03
               3.2188160260702265E-03
               3.0823777019298964E-03
              -2.0941546106130829E-04
              -1.1732003313050784E-02
               8.5176718671405478E-03
              -6.5157929515562048E-03
              -2.0508787032050804E-03
               1.0697217626628102E-02
               5.8015240522181159E-03
               1.0977226394895005E-02
              -3.2260099049755413E-03
              -8.7623770279760438E-04
              -2.3353017438640764E-03
               2.3527199311440821E-03
              -8.5812635160145995E-03
               4.7315124319980782E-03
               4.6295189735144496E-04
               4.1047546603018440E-03
              -6.7354611642122470E-03
              -2.9242585939180318E-03
               1.2112382549169706E-02
              -1.6700532151568047E-02
              -9.1520713837329858E-03
               6.9135534217227811E-03
              -4.9230099390862965E-03
               7.6236157589561794E-03
              -1.9110538146529287E-03
               4.0895953415812595E-03
              -6.8244138289538781E-04
               8.4413472537875553E-03
              -1.1189805345170171E-02
               1.4038501970100631E-03
               2.2906586313436832E-03
              -4.7444037040398779E-03
               1.2613949931472681E-02
               1.2415278510791074E-04
               3.6047096501240847E-04
              -9.0964805084043667E-04
               8.7885019483215712E-03
              -4.2803328823838287E-03
              -1.1780658548087734E-02
               1.4417960678109194E-03
               9.7137243732007880E-03
               2.1934820728639671E-03
               5.6691788261839316E-03
              -1.9468408644520718E-03
               4.4070259758042379E-03
               6.1818129116534681E-03
               3.8604273682125868E-03
               2.6070489369284747E-03
              -3.3040935509765822E-03
              -6.0300465985889239E-03
               1.6949286994758599E-02
              -7.9062280844590712E-03
              -4.8097813492905780E-04
              -3.6932123273835413E-03
              -5.5292805737383868E-03
               3.0170774345181636E-03
               7.7786688137330929E-03
              -4.9712172413182432E-03
              -4.4873704312843486E-03
               1.5443685284953327E-02
              -6.0743729092084782E-03
               4.0167416423682279E-03
              -2.1506545272140616E-03
              -1.5502225219196674E-02
               1.2334464559000984E-02
               1.5026971309914955E-02
               2.1297798649970892E-03
              -1.3174816028227756E-02
              -7.0376628707594212E-03
              -4.6669796534413452E-03
               2.5785246236035963E-03
               6.8504974555388986E-04
              -1.2409546576044699E-02
               2.0522902959491510E-02
              -3.8452853871539551E-04
               8.6265337031262435E-03
               2.0928234618160864E-03
              -5.9640007223663617E-03
              -5.3040564876488602E-03
              -6.3949870808189375E-04
              -2.3139096765996334E-03
               2.6590046234142577E-03
               5.3031927898256051E-03
              -3.3986603357635337E-04
              -1.5131723632127385E-02
               6.0535709664257418E-03
               1.1208144771736892E-03
               5.1707930865224107E-03
              -1.0242104738276156E-02
               3.4923472108383531E-03
              -1.4842013663294159E-03
              -1.0159517756644171E-02
               5.8274416837684976E-03
               1.6870312404527625E-02
               1.3849826866530902E-04
              -5.0245850242411046E-04
               7.7704701777704687E-05
              -1.1737923994240265E-03
              -8.2532815178268919E-03
               2.7348055667687321E-03
              -3.7267316462019986E-04
               1.9563493370763782E-04
               1.2032942548728861E-02
              -8.0887419185974446E-04
              -9.5593980064950113E-03
               7.4150720529530369E-03
              -6.4529980852249093E-03
               5.0998265784273304E-03
               1.9151071163489613E-02
              -1.2466110515600731E-02
              -2.3923088552077767E-03
              -3.7256709273087480E-03
               7.2153786546109988E-03
              -1.6580025365252011E-02
               1.6738580093413290E-03
               4.1856644640827258E-03
               1.5124455898471272E-03
               1.0749155087116434E-02
              -9.7002883269935829E-03
               3.5721718418014119E-03
               2.6482248868681384E-04
              -9.8622230389667168E-03
               2.4525958510664592E-03
               2.4576468099437995E-03
               1.6606543696285790E-03
               9.4189143520490275E-04
               5.4195690092931695E-03
              -2.8904732685398537E-03
               9.6248347797064406E-04
              -1.8804685142178681E-03
               2.4552082022139734E-03
               2.2525873387351700E-03
              -1.3439763383917230E-03
              -5.9168428780704248E-03
              -8.0531248118469144E-03
              -6.4950370289952987E-03
               6.1805945513107433E-04
              -5.5382710567729240E-03
               3.0948214767091654E-03
               1.6852056890204452E-02
              -4.5527576168758500E-03
              -1.2179218797266992E-04
              -5.9188563530323092E-03
               7.5590870365357821E-03
               5.2669933324330153E-03
               5.3578658384255461E-04
              -6.0611626764009979E-03
              -1.6347336408428260E-02
               1.0167929584551995E-02
               2.8498087169781471E-03
              -6.3709377904626156E-03
              -3.9883688602774135E-03
              -5.4697746243626139E-03
               6.0801912682897294E-03
               4.5326948731488929E-03
               2.5206056544546281E-03
               3.5286943264532500E-03
              -1.1301394185116064E-02
              -1.2988990758387180E-03
              -7.5845297013937731E-04
              -3.3427025933945751E-03
               1.0206049968400369E-02
               1.1086031703704098E-02
               8.7101398292861176E-03
              -1.9209493244979732E-02
              -3.7160647333475219E-03
               3.3242338026913199E-03
              -1.0738031046974067E-02
              -3.8294201721903918E-03
               5.6766622441271411E-03
              -4.4893283139633405E-03
               5.8660970965252138E-03
              -3.1979689118864538E-03
               4.4070305108444546E-03
              -1.6735060258126920E-03
              -9.4538061788562906E-04
               5.9331127397441496E-03
               5.6670789747586946E-03
              -1.1599552690961354E-03
               1.0948842425088628E-02
              -1.2913708057160543E-02
               1.3933908777770839E-02
              -4.1229219818056276E-04
               7.5131449291318910E-04
              -6.2366339207272871E-03
              -7.8114594774183798E-03
               4.4633584450111180E-04
               2.4351311109538148E-03
               2.2766668877410297E-03
              -5.0973083444196595E-03
               1.0352536811506019E-02
               7.0499232033344418E-03
              -1.1419426013448850E-02
              -5.8029316505701003E-03
               1.2128534342112883E-03
               8.4316763301247998E-03
               7.2862327877274509E-04
              -7.3885856159637865E-03
              -2.4540522665374384E-03
               5.4660869560165639E-03
               1.3449700664530386E-03
              -5.6206722153913802E-03
               2.2432630808476130E-03
              -6.6641373233290620E-03
               1.3172320812189122E-03
              -3.8702995814085856E-03
              -1.1604513518042026E-03
               7.7590454669188014E-03
              -3.3083955633357127E-03
               9.4222526727586308E-03
              -1.1542027970159671E-02
               1.2882851813617362E-02
              -4.5919973758871656E-03
              -1.0168114272436211E-02
               8.0524576249810780E-03
               3.3396033851804743E-03
              -6.1485881527369680E-03
              -2.0419613920544502E-03
              -9.0417383002667844E-04
               2.5378240249217645E-03
               2.0237765167208368E-03
               2.0030789790668292E-04
               1.9958659921869518E-03
              -7.9439908540265857E-04
               1.5665938232391644E-03
               1.0615090187035825E-03
              -9.3585764833599948E-04
              -5.4059207269301843E-03
               1.2330221937372041E-03
               1.4893320973569019E-02
              -8.8837353006812579E-03
               2.2696607811142967E-03
               3.4296264224699946E-03
              -8.3754935597271543E-04
              -4.6800894624414186E-03
               1.0494851059931431E-02
               1.1025720011304996E-02
               4.5720619516036289E-03
              -1.1730000304256910E-02
               7.4748370975066692E-03
              -6.6075155755480671E-03
               1.2167416058276406E-03
               1.4046362841170089E-03
               5.6788196024587876E-03
              -6.8422725449689159E-04
              -3.9198954338973049E-03
              -5.8665138135552070E-03
              -2.1467737213128811E-04
              -6.6208649844324112E-03
              -3.9300084857679810E-03
              -4.9417112847555001E-03
               7.2523204130203293E-03
              -2.1114014762594465E-03
               1.5843588039172685E-02
              -4.0129222537221764E-03
               6.5264939474979815E-03
              -1.5634085571694371E-02
               1.2789867036638383E-02
               1.1678965737551012E-03
              -5.5004706798490667E-04
               7.2809154201398628E-03
               9.8798591801515477E-03
              -7.3578894621478663E-03
              -2.4818245938226574E-04
              -3.7606151078490775E-03
               4.6780215348562635E-04
               7.5100683916628124E-03
              -2.9612662037056068E-03
              -9.3875321046159241E-03
               4.8958603832516467E-03
               1.0975586124846250E-02
               1.6215837847051477E-03
              -5.3722671437521222E-05
              -2.6218640619517938E-02
               2.3067357568041923E-02
              -2.7790277534863374E-03
               2.7266724392335890E-03
              -4.5626859874387145E-03
               3.8352206865471441E-03
              -5.6344780184477343E-04
               2.4671689064524431E-03
              -4.4670568329012211E-04
               8.8627548064804714E-03
              -3.5691066250093350E-04
              -8.0838457670031824E-03
              -1.0528420099678488E-03
               1.9311505908854983E-03
               5.9371790869989670E-04
               1.1586314302724518E-02
               5.9695983122182205E-03
               7.0967749809980796E-04
               1.5711476813279411E-03
               3.8043062045086140E-03
              -1.4728346327284394E-02
               7.5834098849002314E-03
              -4.5766007729745777E-03
               1.5934213003714005E-03
              -1.2119854126397949E-02
               3.1243593600385196E-03
               5.5425546539543593E-03
              -6.4486947934045845E-04
               1.3655389048023749E-02
              -1.0144518697596335E-02
               1.8291316200560650E-03
               4.7847754321277821E-03
              -1.3777837232465207E-03
               1.7165664950569450E-02
              -5.7249502104567297E-03
              -1.6584700469825658E-02
              -9.8621708241613763E-03
               1.7749718255084593E-02
              -5.2199233425242872E-03
               2.8979083012549518E-03
               3.1876273756325868E-03
               6.7721909404484266E-03
              -2.1694724972855660E-03
              -1.4126511334146359E-03
               7.3325852489311031E-03
              -1.5449745417908846E-02
              -9.1346320924422086E-03
               7.1990139619082291E-03
              -1.0032263730912901E-02
               1.3294657015076816E-02
               1.5362296821866855E-03
               1.8831406536033175E-03
              -5.3837560775084328E-03
               4.1862888196099435E-04
              -1.5251267276568737E-03
              -1.3233163184451105E-02
               7.0718843591576269E-03
              -3.9337517609022996E-03
               2.3098198524643579E-04
              -2.7628679438160214E-03
               1.1012016615645302E-02
               5.5778797236828324E-03
              -5.6959237654288239E-03
               1.2189185454950135E-02
               9.8182848822916708E-04
               1.6800401597461443E-03
               6.7574102133150507E-03
              -5.3492854193974487E-03
              -1.6120648208646031E-03
              -6.2901957998987550E-03
              -1.6777276042679364E-03
               9.3027149180884363E-04
               6.8889298611668507E-03
              -3.7807811735133924E-03
               3.0559403952873931E-03
               4.1018731558566763E-03
              -8.0932217262083498E-03
               1.8092179941018574E-03
              -1.3770134914062034E-02
               5.8602769435859136E-03
               5.6284104154841284E-03
              -8.7281223079989211E-03
              -3.9712711517079634E-04
               2.2859977699387420E-02
              -2.5987343431478384E-03
              -1.0929739404819839E-03
              -1.4303374011255702E-02
               5.3563135226603856E-04
              -1.7073466332069636E-03
               1.0871094795821207E-02
               8.7302741516935654E-03
               9.5249312204853545E-04
              -3.8160110338225951E-03
               3.8605741224396429E-03
               3.6617982218543834E-03
              -3.6870679193276891E-03
              -5.4790850764630961E-03
               7.5550638392501918E-03
              -1.0089602735744651E-03
              -3.4509157061503454E-03
              -6.0881198010969979E-04
              -3.9411362007456732E-03
              -2.6257606896372323E-03
              -3.3780196947564645E-04
               1.3497638771811779E-03
               8.5534134516449013E-03
               1.7233077867230794E-02
              -1.6116624150358833E-02
              -1.4721697510765021E-02
               1.2237051108693360E-02
              -5.6880729909857255E-03
              -7.3614067982238325E-03
              -1.0156234094019889E-03
              -1.3400015275047033E-03
              -3.3006791436722242E-03
               1.4294950051350308E-02
               1.1162916651122257E-02
               2.6710362798191291E-03
              -8.7235651182312329E-03
              -6.1744275035929986E-03
              -5.5130292719396306E-03
               2.3384035220727962E-03
               1.0607300695356803E-03
              -2.7243027539405072E-02
               1.2915208865144428E-02
               8.9739740117789762E-03
              -1.3591695040204700E-02
               7.2631884325500377E-03
               1.9262921120811856E-02
              -1.9282457938980082E-03
               2.8508671001552782E-03
               7.7401414976953423E-03
              -1.4912013905776903E-02
               7.8423244240520707E-03
              -3.5527102440707906E-03
               8.5508002558001058E-03
              -1.5721050319118615E-03
               3.4079155355888511E-03
              -2.8302589486789869E-03
              -2.6009657981840035E-05
               3.0554900776176984E-03
               4.1202672600131650E-03
               5.5785959512174160E-03
               3.9341448866562351E-03
              -2.3518134152180156E-04
              -2.3203021399379048E-03
              -6.3187690463376994E-03
               6.6150538032022513E-03
               5.5960725228791754E-03
               5.7575809707712203E-03
              -6.8226724065213670E-03
               1.1287429883181781E-02
               2.3103842605520595E-03
               1.4904024152406036E-02
              -2.4966517015754266E-03
              -4.4158432763957284E-03
              -2.9513495288135292E-03
              -7.2033807018461434E-03
              -1.0632053353466064E-03
              -1.2927259935340408E-02
              -1.0937641126649959E-05
               7.1607526054250871E-03
               3.1464447844863222E-03
               6.3767815709188961E-03
              -5.9108233009819225E-03
              -9.6037616045170360E-03
               4.0450528424163483E-04
               4.4184049743111456E-03
              -3.3318544791334638E-03
              -6.3497665970363723E-03
               2.3461070548855549E-03
              -2.3787262763753018E-03
               9.7694574837507483E-03
               3.7448858076164970E-03
              -4.2110167818802885E-03
              -4.3387807745348074E-03
               8.7702703509518563E-03
               3.3756318417863711E-04
              -1.5253210059005156E-02
              -9.4865965726290353E-05
               1.2180465224925080E-02
               1.7775312391578438E-02
              -1.7222749202098792E-02
              -4.6324186936789824E-03
               2.4246104519054087E-03
              -1.6076189586279096E-02
               4.0391320702616688E-03
              -4.7343945559577150E-03
               5.5731433032013408E-03
               8.9489746299503750E-03
              -8.1340263600174455E-03
               1.8112734733786425E-03
               1.0786484109682483E-03
               1.4313207563494860E-02
               1.7196175088571104E-03
               7.8094785447412312E-03
              -7.0669500788640566E-03
              -1.2596597174775563E-03
              -1.2237919463894976E-02
               1.1009283239313439E-02
               7.4849121441642099E-03
               6.7710184139829939E-04
              -3.2318712631790119E-03
               3.4933555295037530E-03
              -4.4899231512572140E-03
               3.4530422976198002E-03
              -1.5965573925872333E-03
               4.9067101266164447E-03
              -5.8958000110878412E-03
              -5.2931831504765348E-03
              -4.4400334604744714E-03
              -1.0547663483542830E-02
              -1.6874657639153958E-03
               7.1691864111782235E-03
              -7.6462882451392676E-03
               1.2613053504769069E-02
              -8.1381103363033416E-03
               1.3133901183882199E-02
               1.9752366432247443E-04
               2.6860045237631506E-03
              -2.7024665952693470E-03
               1.7886758152347425E-03
               1.0142811368713318E-02
               1.6000579903326488E-03
               8.1681232562738301E-04
              -7.7837697586231034E-04
              -1.0282872669333540E-02
              -1.6037572317706800E-03
               7.8818542729348472E-03
              -5.3145508073638185E-03
               1.1721212031119376E-03
               1.0745603721749280E-02
              -5.7137051373983535E-03
              -5.6477432319878337E-05
               2.3073859939467551E-03
               5.5121609877607173E-03
              -2.3915232026391758E-03
               3.3611170177949637E-03
              -1.2851000196827094E-03
              -3.8651777884565761E-03
              -8.1963722965388772E-03
               3.5198203240688498E-03
               1.2688322993504044E-03
               9.0594854145788443E-03
               8.1346721952809745E-03
              -2.1260416377749947E-02
               6.1778610088025548E-03
               1.5332197736473062E-02
               3.7273846661625130E-03
              -1.7728728102523727E-04
              -3.4783123872730301E-04
              -9.6291090956164022E-03
               8.1899047257682524E-03
              -4.4306021421933748E-04
              -9.5472464868045261E-03
               1.4406254774342719E-03
              -1.4804245974216241E-02
               1.5254678140076191E-03
               6.8690634565711029E-03
               8.7246118988300817E-03
              -5.3812991132245634E-03
              -5.3582224082221160E-03
              -1.1528970067157081E-02
               1.4508196126076903E-02
               2.9389749101250014E-03
              -1.9204501492063196E-03
               5.7458452142214083E-03
               2.2554933013187750E-03
              -2.4868473985235093E-03
              -3.3934512341098136E-03
               1.2448393491994716E-03
               2.9415924635092550E-04
               1.2837088377132674E-03
              -9.0407600251192477E-04
               2.8953870248054113E-03
              -3.0121309417160426E-04
               4.3002668333083052E-04
               6.7700900616837964E-03
              -3.1612834107426322E-03
              -5.3061198842802035E-03
               1.5110479935785655E-03
               2.2842272319754395E-03
               7.6487320597938132E-03
               4.8036832712511612E-04
               1.0406988499913599E-03
              -1.4609604464285770E-02
              -3.6799792501415254E-03
               1.4655985488175075E-03
              -9.6819322120967020E-03
               1.6170495982872408E-02
               9.6834419134250761E-03
               3.2660536935067742E-04
               8.1231406875610576E-03
              -6.1779134916087556E-03
              -9.3624732971830660E-03
               3.6779527575886779E-03
              -7.3184536540709549E-04
              -2.1527890617751870E-03
              -5.0156156137392063E-03
              -5.8850286787550804E-03
               1.9345620625848558E-02
              -7.5723857085011883E-03
               6.4589431343910847E-02
         &END THERMOSTAT_ENERGY
         &RNG_INIT
Wiener process for Thermostat # 1        1 F T T   3.7280401166127353E-01        2396824340.0        1285798124.0        1970812289.0        4262378425.0        2500496477.0        3105761546.0             12345.0             12345.0             12345.0             12345.0             12345.0             12345.0             12345.0             12345.0             12345.0             12345.0             12345.0             12345.0
Wiener process for Thermostat # 2        1 F T T  -2.8031459711754392E-01        1517340215.0         764337745.0        1777988352.0        1272471177.0        3093987526.0        2495380513.0        3692455944.0        1366884236.0        2968912127.0         335948734.0        4161675175.0         475798818.0        3692455944.0        1366884236.0        2968912127.0         335948734.0        4161675175.0         475798818.0
Wiener process for Thermostat # 3        1 F T T   7.0414863813957229E-01        1874984675.0        3540139467.0        3102430019.0        1608426380.0         643336117.0        1230365417.0        1015873554.0        1310354410.0        2249465273.0         994084013.0        2912484720.0        3876682925.0        1015873554.0        1310354410.0        2249465273.0         994084013.0        2912484720.0        3876682925.0
Wiener process for Thermostat # 4        1 F T T   2.2606224243119818E-01        3416187057.0        1637601412.0         393440280.0        2948182120.0        3407482107.0        2343296956.0        2338701263.0        1119171942.0        2570676563.0         317077452.0        3194180850.0         618832124.0        2338701263.0        1119171942.0        2570676563.0         317077452.0        3194180850.0         618832124.0
Wiener process for Thermostat # 5        1 F T T  -1.0267294306732384E+00         315072143.0        4137263975.0        4196656129.0        1282237791.0        3639735469.0        1937530485.0        1597262096.0        3906379055.0        3312112953.0        1016013135.0        4099474108.0         275305423.0        1597262096.0        3906379055.0        3312112953.0        1016013135.0        4099474108.0         275305423.0
Wiener process for Thermostat # 6        1 F T T   9.2624835653208748E-01        3222219212.0        3105331301.0        2094058484.0        2511776071.0        3719186732.0        3505559269.0          97147054.0        3131372450.0         829345164.0        3691032523.0        3006063034.0        4259826321.0          97147054.0        3131372450.0         829345164.0        3691032523.0        3006063034.0        4259826321.0
Wiener process for Thermostat # 7        1 F T T  -4.6721006089689310E-01        2921304001.0        3534845789.0         764942181.0        2980414860.0        2807768180.0         274774080.0         796079799.0        2105258207.0         955365076.0        2923159030.0        4116632677.0        3067683584.0         796079799.0        2105258207.0         955365076.0        2923159030.0        4116632677.0        3067683584.0
Wiener process for Thermostat # 8        1 F T T   4.8809173354813140E-01        3327178806.0        3682317356.0        2663069382.0         319044460.0        3975670735.0         562702070.0        3281794178.0        2616230133.0        1457051261.0        2762791137.0        2480527362.0        2282316169.0        3281794178.0        2616230133.0        1457051261.0        2762791137.0        2480527362.0        2282316169.0
Wiener process for Thermostat # 9        1 F T T  -8.1805399140306756E-01         433221438.0         349071730.0        2033385903.0        2639944804.0        3988392127.0        3801627598.0        3777646647.0        1837464056.0        4204654757.0         664239048.0        4190510072.0        2959195122.0        3777646647.0        1837464056.0        4204654757.0         664239048.0        4190510072.0        2959195122.0
Wiener process for Thermostat # 10       1 F T T  -2.7062828385550008E-01        2290601073.0        1666814614.0        3289919364.0        2930088785.0        1500929831.0        1860303943.0        4215590817.0        3862461878.0        1087200967.0        1544910132.0         936383720.0        1611370123.0        4215590817.0        3862461878.0        1087200967.0        1544910132.0         936383720.0        1611370123.0
Wiener process for Thermostat # 11       1 F T T   6.8652417552969780E-01        2151060734.0         580174056.0        1748210725.0         399674445.0        1879492130.0        2741776977.0        1683636369.0         362165168.0         814316280.0         869382050.0         980203903.0        2062101717.0        1683636369.0         362165168.0         814316280.0         869382050.0         980203903.0        2062101717.0
Wiener process for Thermostat # 12       1 F T T   1.2985463821691814E+00        3478492904.0        1830493925.0          17364685.0        2058676739.0        2676153401.0        4087350495.0         272317999.0         166758548.0         310112982.0         201045826.0        1680231254.0         118290799.0         272317999.0         166758548.0         310112982.0         201045826.0        1680231254.0         118290799.0
Wiener process for Thermostat # 13       1 F T T   2.0061703114922356E+00        2097018817.0        1300727704.0         367347443.0         582130443.0        2824054692.0        3111690587.0        2245755202.0        1652682525.0        2865544364.0         721509566.0         209733568.0         592362218.0        2245755202.0        1652682525.0        2865544364.0         721509566.0         209733568.0         592362218.0