 # Version information for this restart file 
 # current date 2022-11-29 22:08:26.759
 # current working dir /scratch/work/courses/CHEM-GA-2671-2022fa/sl9736/comp-lab-class/Week12/Runs/Proton
 # Program compiled at                              Sat Dec 12 18:27:15 EST 2020
 # Program compiled on                                         cs001.nyu.cluster
 # Program compiled for                                                nyu-intel
 # Source code revision number                                       git:8c64c6e
 &GLOBAL
   PRINT_LEVEL  LOW
   PROJECT_NAME proton_aimd_1ns_every0.5fs
   RUN_TYPE  MD
   WALLTIME 21600
 &END GLOBAL
 &MOTION
   &GEO_OPT
     OPTIMIZER  BFGS
     MAX_ITER  100
     MAX_DR     3.0000000000000001E-03
     &BFGS
     &END BFGS
   &END GEO_OPT
   &MD
     ENSEMBLE  NVT
     STEPS  2000
     TIMESTEP     4.9999999999999994E-01
     STEP_START_VAL  1998
     TIME_START_VAL     9.9899999999998238E+02
     ECONS_START_VAL    -1.1027506064962838E+03
     TEMPERATURE     3.0000000000000000E+02
     &THERMOSTAT
       TYPE  GLE
       REGION  MASSIVE
       &GLE
         NDIM  5
         A_SCALE     1.0000000000000000E+00
         A_LIST     1.8595758612559999E+02    2.7263853498399998E-01    1.1526100454610001E+01   -3.6414578262600003E+01 \
             2.3173375816020001E+02
         A_LIST    -2.7809524712060002E-01    8.5951591808710006E-05    7.2189048017650004E-01   -1.9844539343859999E-01 \
             4.2409257583420001E-01
         A_LIST    -1.4825808131210000E+01   -7.2189048017650004E-01    1.3590902121280000E+00    5.1498896280349999E+00 \
            -9.9949268450990001E+00
         A_LIST    -1.0372189126880000E+01    1.9844539343859999E-01   -5.1498896280349999E+00    2.6661910891169999E+01 \
             1.1507715495310000E+01
         A_LIST     2.1801346360420001E+02   -4.2409257583420001E-01    9.9949268450990001E+00   -1.1507715495310000E+01 \
             3.0958394565589998E+02
         &THERMOSTAT_ENERGY
               9.5863325311703674E-04
               3.4249590379325859E-03
               3.1968045160822144E-03
               4.7578673252322867E-05
              -1.1943502942690887E-02
               8.4928331745808654E-03
              -6.3856780469492549E-03
              -1.8550369726696172E-03
               1.0232966105777832E-02
               5.8436369254853621E-03
               1.1026042682458152E-02
              -2.9757119496335773E-03
              -1.0717648483979060E-03
              -2.9086853595827345E-03
               2.3583324519635246E-03
              -8.6741974968538929E-03
               4.8202311564945659E-03
               2.0116838194377084E-03
               4.0153737727181924E-03
              -7.0346263364328360E-03
              -2.8105797828567830E-03
               1.1847995627961133E-02
              -1.7290398080787497E-02
              -8.8509470610196352E-03
               6.9984178413871690E-03
              -4.8158414205596647E-03
               7.7740440262510056E-03
              -1.9387037489395150E-03
               3.6469675597711813E-03
              -5.3810249274926646E-04
               8.4374082232647942E-03
              -1.1381691682245936E-02
               1.4064545483434508E-03
               2.2712808518361152E-03
              -4.6970138125719211E-03
               1.2579189673323219E-02
              -1.8565153226573420E-04
               5.7777204441696343E-04
              -8.2421961430643705E-04
               9.2068183128845918E-03
              -4.2844970773533164E-03
              -1.1676212478005047E-02
               6.8281086697087698E-04
               1.0202534458246820E-02
               2.1578995349039150E-03
               5.2580141213195361E-03
              -2.0311232244805146E-03
               3.8042723673516227E-03
               6.2329541356958094E-03
               4.4671456426741522E-03
               2.4337186588334319E-03
              -3.5451405827358826E-03
              -6.1869291922138983E-03
               1.7034195222142657E-02
              -8.2608618087212215E-03
              -9.2163235999446417E-04
              -4.5391457905267878E-03
              -5.7259565747631485E-03
               3.4575050692439765E-03
               7.8077757830620305E-03
              -4.9289309821775248E-03
              -4.8600567000885294E-03
               1.6308310572108402E-02
              -5.6251912144511416E-03
               3.6267736126327217E-03
              -2.1491258374971662E-03
              -1.5312888396200736E-02
               1.2942770512399828E-02
               1.4902592040376214E-02
               2.2579233231596581E-03
              -1.3114137089284250E-02
              -6.9548076300282877E-03
              -4.8285150531357851E-03
               3.3389411238128721E-03
               5.0104037388406381E-04
              -1.1996246120960063E-02
               2.0908546734704492E-02
              -4.9989235018483885E-04
               9.2508217799162924E-03
               1.9194839275813952E-03
              -6.1899822337605718E-03
              -5.7987811968118362E-03
              -4.9834837297655721E-04
              -2.1961942338747883E-03
               2.6522367754848179E-03
               5.0068945200282744E-03
              -6.6101371856863841E-04
              -1.4469378831143721E-02
               6.3440521374844381E-03
               1.0593000844350102E-03
               5.0142373902186572E-03
              -1.0274485725662896E-02
               3.4991091890634002E-03
              -1.5130815995407509E-03
              -9.8827009335555830E-03
               5.4238703736851626E-03
               1.6704319684676082E-02
              -4.8265869971182495E-05
              -8.6092833246474590E-04
               1.8284347681112446E-05
              -1.2173075885951185E-03
              -8.4869159194045987E-03
               1.8536474633245948E-03
               2.6857002697454389E-04
               3.3718244361025069E-04
               1.1950595009166242E-02
              -8.5384167792237507E-04
              -1.0060929669581935E-02
               7.4707028814873424E-03
              -6.3478281370701363E-03
               5.2940063622463019E-03
               1.8385332530326565E-02
              -1.2091589344619427E-02
              -2.4323159886644333E-03
              -3.9800796397029556E-03
               7.4556776021974637E-03
              -1.6523799374069888E-02
               1.4015881889873558E-03
               4.2253482743109128E-03
               1.7402232602258139E-03
               1.2249737540580674E-02
              -9.5661001647277775E-03
               3.6587381400672520E-03
               4.3642333799631466E-04
              -9.8260561677751459E-03
               1.8226770662698177E-03
               2.4906297994192559E-03
               1.6931731801141017E-03
               1.0854944337196626E-03
               5.4240423679244006E-03
              -3.2273910892552026E-03
               5.9968506657987852E-04
              -1.8741748860569602E-03
               2.7035759321433323E-03
               2.0758434567356362E-03
              -1.2509297559482047E-03
              -5.2836055846031005E-03
              -7.1230712832659783E-03
              -6.6297547373619977E-03
               6.3801879220058667E-04
              -5.4498408901517935E-03
               3.4542043841523798E-03
               1.5888994236793401E-02
              -4.4041613489904262E-03
              -1.9426451647442625E-04
              -5.9545390792477204E-03
               8.1046218734059337E-03
               5.2658059211138858E-03
               5.2767172652674725E-04
              -6.0402905167328260E-03
              -1.6821965285706741E-02
               1.0131541699421012E-02
               3.4103894676000709E-03
              -5.6163503365591382E-03
              -4.1235809086754673E-03
              -5.4334743175878508E-03
               6.3893804977397505E-03
               4.3069517680168028E-03
               2.4903407112294826E-03
               3.2730375157616716E-03
              -1.1868163703355462E-02
              -9.4824319355804089E-04
              -1.3522603764904233E-03
              -2.9878392918628750E-03
               9.6986780298665230E-03
               1.1679940146392030E-02
               8.6965233850069962E-03
              -1.9303048185344902E-02
              -3.9210371524836529E-03
               3.2809853298597308E-03
              -1.0377116081216765E-02
              -3.8268783239196824E-03
               5.7192832787842460E-03
              -4.5432319703990146E-03
               5.7629636549615610E-03
              -3.1449277086841093E-03
               4.9240465019719680E-03
              -1.9827201429864897E-03
              -1.0037514844110614E-03
               5.4066092043673240E-03
               5.9472884011862112E-03
              -1.4766312667811353E-03
               1.1100392385252773E-02
              -1.2241936907661212E-02
               1.3977958634448106E-02
               1.2638160552323817E-04
               5.8134832127243572E-04
              -6.6524674626141349E-03
              -7.8429338273179119E-03
               2.7675199406635478E-04
               2.6927186318318314E-03
               2.1068024773952814E-03
              -4.0921848398035032E-03
               1.0355088631084780E-02
               6.9581075140503542E-03
              -1.1432328189492344E-02
              -5.8461555789297301E-03
               8.3162343361666479E-05
               8.5721413979833339E-03
               9.1315621244584806E-04
              -7.4717260152654258E-03
              -2.6124566518777141E-03
               5.3927999686021692E-03
               1.4893025417341760E-03
              -4.7462226988452877E-03
               1.4947780255918669E-03
              -6.5138573336642400E-03
               1.4692893467086942E-03
              -3.7330058750202912E-03
              -1.1454083054033015E-03
               7.7940715008145284E-03
              -3.1501681494749481E-03
               9.4226371130136898E-03
              -1.1418059270475839E-02
               1.2999358318110303E-02
              -4.5535976949556524E-03
              -1.0076353808359655E-02
               8.2000013967996159E-03
               3.4504846209828404E-03
              -6.1017396253516439E-03
              -2.5451525077445835E-03
              -1.1105125243772592E-03
               2.7197637565541683E-03
               2.2578491509619037E-03
               2.7339844951540998E-04
               1.9801023137365321E-03
              -6.0851852486455736E-04
               1.5291934194116767E-03
               1.3835959659580107E-03
              -1.1783969088083723E-03
              -5.6152870457079011E-03
               1.3836836245530028E-03
               1.5648790235588687E-02
              -8.7671355968781846E-03
               2.3788455253319647E-03
               3.0882329743897241E-03
              -2.6675325960188166E-04
              -4.5329467367323378E-03
               1.0612703259629768E-02
               1.1058201155277893E-02
               4.6581790996761685E-03
              -1.1713441610318735E-02
               7.3576589712705497E-03
              -6.3559674347883049E-03
               2.0001595606289912E-03
               1.8429790824852244E-03
               4.7518861048879623E-03
              -5.6210228218660284E-04
              -4.0257460343914760E-03
              -5.9618377229512815E-03
              -9.2058507967930148E-05
              -6.8998150979489086E-03
              -4.6685969760131970E-03
              -5.7927728304052453E-03
               7.2845672272946029E-03
              -2.0053184125676730E-03
               1.5827307231998048E-02
              -4.1418831562897995E-03
               6.4508688091019853E-03
              -1.5473797204287083E-02
               1.2990380985973934E-02
               1.1060165086117439E-03
              -1.2974447911130878E-04
               7.3369498480456274E-03
               1.0579048242249841E-02
              -7.0141725947446667E-03
              -4.9993795166066455E-04
              -4.2609037560199610E-03
               2.9520772919132908E-04
               7.4749132809542639E-03
              -3.1227172608495448E-03
              -9.2836629313565577E-03
               4.7486806801381905E-03
               1.1512212863214657E-02
               2.1795702544584335E-03
              -2.1168948648339175E-04
              -2.6049243376855071E-02
               2.3158803072283466E-02
              -2.7430918770553884E-03
               2.7788228311541865E-03
              -4.1234878325730837E-03
               4.0085989178384072E-03
              -9.7275763526687804E-06
               2.1572274975352303E-03
              -6.0759713728242022E-04
               8.8731527601097707E-03
              -8.3586428333671864E-04
              -7.9968641228911307E-03
              -1.0624218708902330E-03
               1.9655210799803748E-03
               2.0543546465141048E-03
               1.1668625001515314E-02
               6.1311670360944216E-03
               7.6056845558630163E-04
               1.5831300541000173E-03
               3.7577227262924622E-03
              -1.5621523995536450E-02
               7.5439279004840135E-03
              -4.2836203048522443E-03
               1.6818587927913584E-03
              -1.2996667544563828E-02
               2.8874125426622981E-03
               5.5204139846131636E-03
              -7.1698969401454550E-04
               1.3650771832380696E-02
              -1.0104204769143607E-02
               3.0085977238027803E-03
               4.6657298857928943E-03
              -1.3193496139013417E-03
               1.7715555658202660E-02
              -5.6310338929298574E-03
              -1.6387153853162695E-02
              -9.7904571185306582E-03
               1.7924447543946787E-02
              -5.4010676572970448E-03
               3.4669452167551758E-03
               3.7479344639570989E-03
               6.6924273007112111E-03
              -2.2058706761297411E-03
              -1.4283005025534199E-03
               7.3692202467096216E-03
              -1.5781288576415600E-02
              -9.1828084739145280E-03
               7.0324269664829965E-03
              -1.1397908803235622E-02
               1.2506605081439217E-02
               1.5018364672858180E-03
               2.3803551254653280E-03
              -5.4876529975104319E-03
               5.6929947827163800E-04
              -2.9861604581097548E-04
              -1.3691566131306097E-02
               6.9456177526735175E-03
              -4.1292096135418449E-03
               2.3645292834878284E-04
              -2.7983992099580692E-03
               1.1473939718468534E-02
               5.0896189823485434E-03
              -5.6588847048562032E-03
               1.2256792985504705E-02
               1.0397924032851415E-03
               1.5370786815827406E-03
               6.7845794689421835E-03
              -5.2290591552398959E-03
              -1.5774326608122497E-03
              -5.6994886753236563E-03
              -1.6663959402895214E-03
               9.4095885182931638E-04
               6.9670450504746122E-03
              -4.4627637877065317E-03
               2.9475291889891589E-03
               4.0473262047732378E-03
              -8.0141907987196954E-03
               1.3557296780501221E-03
              -1.3878345863870309E-02
               5.5040725773190585E-03
               5.6424676862646371E-03
              -8.7768891453752391E-03
              -1.1671755641961543E-04
               2.2744028923016430E-02
              -2.6050601191993411E-03
               2.7894272547746956E-04
              -1.4516226502186397E-02
               7.2967456008096211E-04
              -1.9142524639101542E-03
               1.0765651452196672E-02
               9.1774253785922421E-03
               8.8711938086300760E-04
              -3.9819786704140712E-03
               3.7970262429180552E-03
               3.8089568337605303E-03
              -2.7420168361808423E-03
              -5.4993974337582182E-03
               7.0599367863384260E-03
              -1.3527240720022505E-03
              -3.2053078696951016E-03
              -7.0747614669377547E-04
              -3.9665793424715863E-03
              -2.3044372703685005E-03
              -2.1865873789103798E-04
               1.9295470015574068E-03
               8.2414503230793575E-03
               1.6912418344485900E-02
              -1.6124410680619414E-02
              -1.6162979464602507E-02
               1.2259668585100660E-02
              -5.7233793251993629E-03
              -7.4318008690932840E-03
              -1.1870687020573386E-03
              -1.3202769466254499E-03
              -3.5082451393232562E-03
               1.4827104411543160E-02
               1.1161985781535209E-02
               2.6730931375699460E-03
              -8.7571955521973874E-03
              -6.0727895693355044E-03
              -5.4406741381833644E-03
               2.2951611017289933E-03
               1.4121573579533547E-03
              -2.6901874860642223E-02
               1.2669061070820864E-02
               8.8628192600650590E-03
              -1.3620434557959773E-02
               7.2357983043915691E-03
               1.9240610587012454E-02
              -1.9175902407478343E-03
               2.5321012470085665E-03
               7.1547469022586289E-03
              -1.4897692793227175E-02
               7.9161296544874270E-03
              -3.5170988745090912E-03
               8.4288049260097253E-03
              -2.2087125723549532E-03
               3.6624490255843180E-03
              -2.3919165822115568E-03
               4.2941480695048509E-04
               3.1164097497167974E-03
               4.1447432333721595E-03
               5.8808503727088499E-03
               4.0485199795972744E-03
              -6.5825475825847190E-04
              -2.8258160917078745E-03
              -6.2721146333078017E-03
               6.7434154509231530E-03
               5.5958383116699239E-03
               6.1086947560286698E-03
              -6.8757901941306192E-03
               1.1244713500545817E-02
               2.6728517322236588E-03
               1.4872648734989575E-02
              -1.9240255322151884E-03
              -4.3033800583502308E-03
              -3.4590201899729646E-03
              -7.4206426348995495E-03
              -1.2661525840571924E-03
              -1.2276583388236189E-02
              -1.4156251636709793E-03
               7.7887350587132675E-03
               3.1488252098861619E-03
               5.9894330201962186E-03
              -6.0014690058311287E-03
              -1.0029521076027750E-02
               4.4303357198176025E-04
               5.1987812555636097E-03
              -3.4183947294581726E-03
              -6.4524647658070070E-03
               2.6020007496329284E-03
              -2.1772440297424152E-03
               9.7456788734986612E-03
               3.6929152631474905E-03
              -4.8456134847855749E-03
              -4.3136518677911974E-03
               8.5546976304006796E-03
               5.9527641716941603E-04
              -1.5196304825822215E-02
              -9.2785171287001605E-05
               1.2165027401694574E-02
               1.7540409931090756E-02
              -1.6746156733405338E-02
              -4.1331280276616237E-03
               3.0706898964531272E-03
              -1.6242361265789821E-02
               4.2718029768964560E-03
              -4.6410599502662488E-03
               6.0428408292228994E-03
               9.2540383404567869E-03
              -8.1180453840935182E-03
               1.7170000965166868E-03
               1.5001485050681511E-03
               1.4272579939620429E-02
               1.7660075136388678E-03
               8.0981471563833785E-03
              -7.8431178352324459E-03
              -1.3025235117735548E-03
              -1.2078699622544630E-02
               1.1434858277132549E-02
               6.9578659649466561E-03
               7.6609616563219662E-04
              -3.5087153525074836E-03
               3.6469283885247985E-03
              -4.3183964277275699E-03
               4.8557405665067199E-03
              -2.7509920947323694E-03
               5.1016744096495249E-03
              -6.1949476835166245E-03
              -5.2675027700449968E-03
              -4.5258513728732930E-03
              -1.0192294128549073E-02
              -1.3461286567642396E-03
               6.9862836083445425E-03
              -7.6364881487298655E-03
               1.2968970408442835E-02
              -8.4589776988826405E-03
               1.2967773228630282E-02
               7.4705623790173456E-05
               2.7203303342121935E-03
              -2.0074424920637525E-03
               1.7499326330762551E-03
               1.0313339804722588E-02
               1.6649962895610550E-03
               1.4770480907128540E-03
              -9.6278907152451995E-05
              -1.0393467171316954E-02
              -1.8205048849678248E-03
               7.8305029298463887E-03
              -5.2988834252675823E-03
               1.1539479247293801E-03
               1.0645459078532328E-02
              -5.4174976574231795E-03
               9.2116611423580057E-05
               2.2792976549230576E-03
               5.5612858593806777E-03
              -1.9799627074457869E-03
               3.5549859719638589E-03
              -1.2249184315404273E-03
              -4.0145394635186307E-03
              -7.9722508699792607E-03
               3.4635185056321677E-03
               1.3209479891078163E-03
               9.0960771089447189E-03
               8.7856973918654865E-03
              -2.1254632673736062E-02
               6.1340019048028004E-03
               1.5394870897333258E-02
               3.2087029134436253E-03
              -3.8643598181827921E-04
              -1.1364859051866537E-04
              -9.7763731577247218E-03
               8.7695999414794598E-03
              -5.0357676186971482E-04
              -9.6144840511285697E-03
               1.3060182289457906E-03
              -1.3572086573942058E-02
               1.4851001615276208E-03
               7.0864314856469227E-03
               8.5343890874883949E-03
              -5.4067134174672809E-03
              -5.3644160978370409E-03
              -1.1269896009599274E-02
               1.3832172068034490E-02
               2.3347223430386383E-03
              -2.0209089189680302E-03
               5.7460146707031673E-03
               2.3393250510484391E-03
              -2.5553794421542702E-03
              -3.6409802982837929E-03
               1.5975300742290702E-03
               5.2169052800320914E-05
               1.5037910947202004E-03
              -9.0718450452406229E-04
               3.2734221373473395E-03
              -2.2254229788591876E-04
               2.6502628531313848E-04
               6.5759755078434370E-03
              -3.1175645794064375E-03
              -5.2993568333798728E-03
               1.7920514951719978E-03
               2.3076402133776052E-03
               7.3193067018276379E-03
               5.0204176668198596E-04
               1.8735682130703011E-03
              -1.4594956755959173E-02
              -3.6289267405262551E-03
               1.3151295243315918E-03
              -9.4832085059390753E-03
               1.6810796588829557E-02
               9.6946863159016825E-03
               6.3487417607098874E-04
               8.1615369211237698E-03
              -6.2323761773972293E-03
              -9.3901480011339567E-03
               3.6890423000973944E-03
               1.1454048868222149E-03
              -2.4771612372370645E-03
              -6.9208678917923681E-03
              -5.5939891117058214E-03
               1.9311530959975644E-02
              -7.5512861473003593E-03
               6.4752068303247770E-02
         &END THERMOSTAT_ENERGY
         &RNG_INIT
Wiener process for Thermostat # 1        1 F T T  -1.5601997779545997E+00        4027757407.0        1559045809.0        3403552754.0        1703120254.0         453778739.0        2861026355.0             12345.0             12345.0             12345.0             12345.0             12345.0             12345.0             12345.0             12345.0             12345.0             12345.0             12345.0             12345.0
Wiener process for Thermostat # 2        1 F T T  -4.0112764818655514E-02        3838101567.0        1430396723.0        1556923290.0        2889325561.0         607612135.0        3761282217.0        3692455944.0        1366884236.0        2968912127.0         335948734.0        4161675175.0         475798818.0        3692455944.0        1366884236.0        2968912127.0         335948734.0        4161675175.0         475798818.0
Wiener process for Thermostat # 3        1 F T T  -2.7485675335982579E-01         482699311.0        2506409672.0        1202736307.0        1073196783.0        1141297417.0        2856513754.0        1015873554.0        1310354410.0        2249465273.0         994084013.0        2912484720.0        3876682925.0        1015873554.0        1310354410.0        2249465273.0         994084013.0        2912484720.0        3876682925.0
Wiener process for Thermostat # 4        1 F T T  -9.8957058820594379E-01        3129827523.0        3549124345.0        1353678049.0        1344233659.0        2578763699.0        1106953444.0        2338701263.0        1119171942.0        2570676563.0         317077452.0        3194180850.0         618832124.0        2338701263.0        1119171942.0        2570676563.0         317077452.0        3194180850.0         618832124.0
Wiener process for Thermostat # 5        1 F T T   8.1743834600370391E-01         587879607.0         702838090.0         820286405.0        1159088393.0        1840431053.0        2379049004.0        1597262096.0        3906379055.0        3312112953.0        1016013135.0        4099474108.0         275305423.0        1597262096.0        3906379055.0        3312112953.0        1016013135.0        4099474108.0         275305423.0
Wiener process for Thermostat # 6        1 F T T  -4.6635220676026440E-01        1255338812.0        2941627828.0        2767710176.0        1701464963.0        2824905014.0        2257709657.0          97147054.0        3131372450.0         829345164.0        3691032523.0        3006063034.0        4259826321.0          97147054.0        3131372450.0         829345164.0        3691032523.0        3006063034.0        4259826321.0
Wiener process for Thermostat # 7        1 F T T  -2.7221417990508723E-01        2928923925.0        1475590831.0        3028549759.0        1729569924.0         123262326.0        1965188850.0         796079799.0        2105258207.0         955365076.0        2923159030.0        4116632677.0        3067683584.0         796079799.0        2105258207.0         955365076.0        2923159030.0        4116632677.0        3067683584.0
Wiener process for Thermostat # 8        1 F T T  -1.3371509559371584E+00        3293786404.0        2324351260.0        4224364702.0        1341956089.0         912321799.0        2697559406.0        3281794178.0        2616230133.0        1457051261.0        2762791137.0        2480527362.0        2282316169.0        3281794178.0        2616230133.0        1457051261.0        2762791137.0        2480527362.0        2282316169.0
Wiener process for Thermostat # 9        1 F T T  -8.7225140957356684E-01         657961678.0        1513147170.0        2219186603.0        4111646695.0         616753226.0        2747528653.0        3777646647.0        1837464056.0        4204654757.0         664239048.0        4190510072.0        2959195122.0        3777646647.0        1837464056.0        4204654757.0         664239048.0        4190510072.0        2959195122.0
Wiener process for Thermostat # 10       1 F T T  -6.2889449580622436E-01          96284293.0        2446379684.0        3801610533.0        2961863039.0        1877110468.0         129512113.0        4215590817.0        3862461878.0        1087200967.0        1544910132.0         936383720.0        1611370123.0        4215590817.0        3862461878.0        1087200967.0        1544910132.0         936383720.0        1611370123.0
Wiener process for Thermostat # 11       1 F T T   5.7191327297384098E-01         909895394.0        1862319182.0        2400367466.0        1201802882.0        2818881371.0          83822050.0        1683636369.0         362165168.0         814316280.0         869382050.0         980203903.0        2062101717.0        1683636369.0         362165168.0         814316280.0         869382050.0         980203903.0        2062101717.0
Wiener process for Thermostat # 12       1 F T T  -2.0098512161557830E-01        4281566709.0        2729512869.0         275332126.0         437149450.0        1041778670.0        1778805263.0         272317999.0         166758548.0         310112982.0         201045826.0        1680231254.0         118290799.0         272317999.0         166758548.0         310112982.0         201045826.0        1680231254.0         118290799.0
Wiener process for Thermostat # 13       1 F T T   9.4560796151122029E-01        3557498645.0        2583014714.0        2425630516.0         920535172.0        3770643442.0         978988578.0        2245755202.0        1652682525.0        2865544364.0         721509566.0         209733568.0         592362218.0        2245755202.0        1652682525.0        2865544364.0         721509566.0         209733568.0         592362218.0