 # Version information for this restart file 
 # current date 2022-11-29 20:20:08.395
 # current working dir /scratch/work/courses/CHEM-GA-2671-2022fa/sl9736/comp-lab-class/Week12/Runs/Proton
 # Program compiled at                              Sat Dec 12 18:27:15 EST 2020
 # Program compiled on                                         cs001.nyu.cluster
 # Program compiled for                                                nyu-intel
 # Source code revision number                                       git:8c64c6e
 &GLOBAL
   PRINT_LEVEL  LOW
   PROJECT_NAME proton_aimd_1ns_every0.5fs
   RUN_TYPE  MD
   WALLTIME 21600
 &END GLOBAL
 &MOTION
   &GEO_OPT
     OPTIMIZER  BFGS
     MAX_ITER  100
     MAX_DR     3.0000000000000001E-03
     &BFGS
     &END BFGS
   &END GEO_OPT
   &MD
     ENSEMBLE  NVT
     STEPS  2000
     TIMESTEP     4.9999999999999994E-01
     STEP_START_VAL  1500
     TIME_START_VAL     7.5000000000000762E+02
     ECONS_START_VAL    -1.1027506064962838E+03
     TEMPERATURE     3.0000000000000000E+02
     &THERMOSTAT
       TYPE  GLE
       REGION  MASSIVE
       &GLE
         NDIM  5
         A_SCALE     1.0000000000000000E+00
         A_LIST     1.8595758612559999E+02    2.7263853498399998E-01    1.1526100454610001E+01   -3.6414578262600003E+01 \
             2.3173375816020001E+02
         A_LIST    -2.7809524712060002E-01    8.5951591808710006E-05    7.2189048017650004E-01   -1.9844539343859999E-01 \
             4.2409257583420001E-01
         A_LIST    -1.4825808131210000E+01   -7.2189048017650004E-01    1.3590902121280000E+00    5.1498896280349999E+00 \
            -9.9949268450990001E+00
         A_LIST    -1.0372189126880000E+01    1.9844539343859999E-01   -5.1498896280349999E+00    2.6661910891169999E+01 \
             1.1507715495310000E+01
         A_LIST     2.1801346360420001E+02   -4.2409257583420001E-01    9.9949268450990001E+00   -1.1507715495310000E+01 \
             3.0958394565589998E+02
         &THERMOSTAT_ENERGY
              -3.7914465161316402E-04
               3.5203198841872463E-04
               2.0610207307016045E-03
               2.3452689482545211E-03
              -1.2722700479621849E-02
               1.2094815219653441E-02
              -3.9140185009248658E-03
              -3.6203494515054451E-03
               5.1865718320473929E-03
               2.9343443306362018E-03
               8.6131755830878860E-03
              -7.1753480989433672E-03
               1.0657022659303666E-04
              -3.2997425985600080E-03
               5.2313060106102989E-03
              -1.6579732498336998E-03
               5.1205366160672105E-03
              -2.9343427904309650E-03
               1.1545294722882509E-03
              -6.0575349113184520E-03
               3.1510321975719122E-03
               6.1465096048238400E-03
              -1.2122890068481518E-02
              -3.8124269741385249E-03
               7.0263302888080373E-03
              -8.6914074030674943E-03
               1.5820589644768273E-03
              -4.3119744679507872E-03
               7.3367696649291108E-03
              -2.7474243446057680E-03
               8.1222537590127670E-03
              -8.8090647920301759E-03
               2.4179668475134753E-03
               4.7444263193327438E-03
              -1.2599022652217630E-02
               1.1508078144137653E-02
              -3.1153261050866424E-03
               5.2987306055277323E-04
               7.6413492347507156E-04
               5.1030421023746221E-03
              -2.1131650025411667E-03
              -3.8463471548279967E-03
               2.2411715730353775E-03
               7.0209914035355148E-03
               9.1899093713601859E-04
               3.3427400744105167E-03
              -5.7906770452342965E-03
               2.9382682266527104E-03
               5.1259787941479278E-03
               4.4191164609594120E-03
               4.2504256561718412E-03
              -9.2568146239463151E-03
              -2.8448736627407272E-03
               1.5357608194659247E-02
              -7.1201798027162129E-03
               1.2521876045812229E-03
              -2.6825632745172516E-03
              -2.5843702115504503E-04
               3.8253340128155890E-03
               4.3719143664282039E-03
              -5.1817671593620213E-03
              -9.3338718706123813E-03
               1.4304816475392813E-02
              -2.8753898523761075E-03
               4.9331929346859444E-03
              -1.3378002101384653E-03
              -1.2299178289872445E-02
               6.4797997288789429E-03
               1.7066524752832220E-02
               5.0274315897982560E-03
              -9.9798234961677914E-03
              -8.7368181117899110E-03
              -2.0712576914996097E-03
               6.4709741092721577E-04
               1.8471210424334493E-04
              -1.2871191391241901E-02
               1.7658306135961036E-02
              -1.5687861367246832E-03
               6.7155286614938520E-03
              -1.0629076879988166E-03
              -4.7244832841866619E-03
              -1.9991735094891131E-03
               1.2900060152847761E-03
              -2.3748427372688478E-03
               5.2590770465514259E-03
              -8.6971731695023775E-04
              -4.5136585037836941E-04
              -3.2239942582358086E-03
               4.6371434103202012E-03
               1.1658652548457754E-03
               4.5713904502731034E-03
              -7.3775375865479300E-03
               4.0010406705855307E-03
              -6.4622552124426417E-03
              -8.1584497332152835E-03
               5.9735573023297827E-03
               9.2231833794055272E-03
               3.6207387773771533E-04
               7.6090487575736889E-03
               2.4454790743055183E-03
              -2.7390577653795176E-03
              -5.8392186481643297E-03
               4.7358392802035179E-03
               3.6642556246453822E-03
              -5.8229292256698146E-03
               1.0058216163415720E-02
              -1.2001728389325827E-03
              -7.1274603287240570E-03
               8.8976375244784866E-03
              -5.8576275436197514E-03
               4.1832163953908963E-03
               3.8107062998310069E-03
              -4.6750691864553724E-05
               3.4244132325850361E-03
              -6.0741606195731535E-03
               5.1987795400755803E-03
              -1.3678841243652489E-02
               1.6467901221984319E-03
               2.8778183870150280E-03
               4.6696661862699292E-04
               1.6505194894258536E-02
              -9.4281178043581614E-03
              -3.6275775777725875E-03
              -1.3609509973618297E-03
              -4.3976494440668267E-03
               1.2338577085218999E-03
               3.9939195150844407E-03
               1.7198232713433815E-03
               2.8308866095969757E-03
              -2.1778987512013001E-03
              -1.4200246031382301E-03
               2.5999801113522221E-03
              -2.1068153996508811E-03
               2.0196872146936501E-03
               2.6477608101623282E-03
              -1.5210162588073686E-03
              -9.4179622004933270E-03
              -3.3686970675049204E-03
              -2.8435687448759767E-03
              -1.6065044575721511E-03
               3.0128973015188231E-04
               1.7169654106261531E-03
               1.7282521436730518E-02
              -4.3543575391217729E-03
              -2.9548570231079209E-03
              -2.5787050158719536E-03
               1.0847973992216840E-02
              -1.9443791885327623E-03
              -1.2087099264629269E-03
              -3.5005931604558775E-03
              -1.5228604666738883E-02
               6.9457335838396085E-03
               3.7312410354077368E-03
              -6.8618347449384692E-03
              -6.1917289406306000E-04
              -1.3270462301754810E-03
               3.5067737342693423E-03
              -3.6497281030589222E-03
              -5.1175532406172604E-04
               3.3077590586516213E-03
              -5.6049751861761404E-03
              -5.1572606244104750E-03
              -1.1921403839684820E-03
               9.5282296347925632E-04
               8.5049535916741133E-03
               1.0104293163930304E-02
               4.6983416604381911E-03
              -5.4175482063044591E-03
              -6.4854127856884469E-03
               5.9284826778161666E-03
              -8.4646471174398014E-03
              -3.7339186376510506E-03
              -7.6530724136547601E-04
              -3.2987299322647426E-03
               5.0024257570448118E-03
              -2.1919592696424623E-03
               4.2559921601627373E-03
               2.3650546691738284E-03
               7.8585992692778688E-04
               5.8753258391728994E-03
               1.3801791131355895E-03
               1.1146768393802838E-03
               8.2744255131239376E-03
              -1.5240452439034000E-02
               1.3646903889932255E-02
               1.8065560180154211E-03
              -4.0382863193424547E-03
               6.8730442991091754E-05
              -5.3656489412854174E-03
              -8.9171426239230054E-04
               1.4429980391062163E-03
              -9.1121949127363289E-04
              -5.1006775765516073E-03
               3.2831936905975043E-03
               7.0662481455464627E-03
              -9.3463761230782091E-03
              -5.5535698584652481E-03
               9.1946542708589082E-03
               6.1176403826841436E-03
               5.6660492668333983E-04
              -1.0256555520295077E-02
              -1.8236272412907777E-03
               2.5648118699810843E-03
               6.9810557731803304E-03
               2.8659299723074105E-03
               1.9354873248406664E-03
              -4.9562947716543168E-03
               1.0707169366691964E-03
              -1.6007826191007566E-03
               5.3311399723353879E-04
               4.1397234228116577E-03
              -1.8433547962835683E-03
               1.1494489971358809E-02
              -1.4009460879040182E-02
               1.4046036012479749E-02
               3.8018367790895540E-04
              -3.4577725744653312E-03
               4.9448678085377770E-03
               2.1261361602331595E-03
              -7.8277742550140073E-03
              -5.7353422881411490E-04
              -3.1883621965556577E-03
               3.3803593737163026E-03
               1.4829599575875651E-03
               6.8703120107285829E-04
               1.1446745760331200E-04
               4.4949873278783237E-05
              -2.4031893180385760E-04
              -2.5801930392013389E-03
               8.2267652946730781E-03
              -6.9075443803352189E-03
               4.3726804841853198E-03
               9.3914680573159142E-03
              -8.4585858191737508E-03
               2.9130138755497845E-03
              -3.8702570163634412E-03
              -3.3658243482474052E-03
               6.2533994466138594E-04
               7.6272040526662779E-03
               5.0463848487636472E-03
               4.1048279830862601E-03
              -6.3476332776916380E-03
               4.3864674167395073E-03
              -4.4907165853275205E-03
              -1.2460587918635385E-03
               6.2206966551781539E-04
               5.9943522594230808E-03
              -2.3452696646397509E-03
              -5.5071748110960828E-03
              -3.0311189048797199E-03
               1.7872504421187778E-03
              -1.7461116545086570E-03
              -2.9863493566073900E-03
              -5.3801621140117124E-03
               5.5647491726341803E-03
              -6.1343868432641906E-03
               1.4714758984971940E-02
              -3.9211276834004681E-03
               1.2693520084671272E-03
              -7.4405549116355191E-03
               1.0644284771287803E-02
               3.3444767337084333E-04
               3.0725541146056036E-03
               8.8324473528031446E-03
               1.1045593134709040E-02
              -7.2886591171917219E-03
              -3.8404482739180104E-03
              -9.7074942972344459E-03
              -1.3669500675120240E-03
               9.3554896804100250E-03
              -4.2419972605796082E-03
              -7.8056341483995970E-03
               8.4922375726867103E-03
               1.3328682148275565E-02
              -4.6020041414207387E-03
               1.3917858419251004E-03
              -2.6656121627929789E-02
               1.8239615411506191E-02
               2.8721656541875774E-04
               4.2705664262126675E-03
              -4.6214973501066247E-03
               4.6375262441284391E-03
               4.8583271805884487E-03
              -1.9556254666186212E-03
              -4.5929759079942132E-04
               3.2910727714049334E-05
               2.5523861975442971E-03
              -6.3698892158169920E-03
              -1.3466468961868881E-03
               1.4577025428750596E-04
               2.1110585174375779E-03
               8.5844480953469696E-03
              -6.8661117175269719E-04
               1.9355609931539935E-03
              -2.1479102101739263E-03
              -1.2402098720963508E-04
              -9.4241608379444144E-03
               2.5515287426893128E-03
              -3.3461836374066448E-03
              -2.7255390703733759E-03
              -6.0237718115089423E-03
               5.4529950518731468E-03
               5.0086574060386564E-03
              -2.2943201039130699E-03
               1.1972332724233955E-02
              -9.5619121415538560E-03
               6.4098436098263694E-04
               1.8309306563480543E-04
               9.1666347172603764E-04
               1.7185216614036346E-02
              -4.6964413113430182E-03
              -1.4454645793796201E-02
               5.5104301283283633E-05
               7.0362165828194607E-03
              -6.3759253272135177E-03
               1.5343663682434339E-03
               3.3595579665478153E-03
               7.6876659908306179E-03
              -7.4745676969655561E-03
              -4.2110897886862893E-03
               1.2107003944049696E-02
              -5.5064310831319779E-03
              -1.2187074502747582E-02
               7.9669006145392934E-03
              -4.8774804815682514E-03
               4.5724500834373426E-03
               5.5076197118425485E-03
               3.9936940672575605E-03
              -7.4679327904951806E-03
              -6.1565181374529975E-03
               3.0846366836192134E-04
              -1.2628915163778802E-02
               1.3181717150752094E-02
              -1.0345096569474492E-03
               1.2875622086206641E-03
              -1.1574152277695339E-03
               1.2345879563977815E-02
               3.1203618689745979E-03
              -5.6825617776175867E-03
               1.1498239220248443E-02
               2.5786292846091403E-04
               9.1671273262009163E-04
               9.1758460426065551E-03
              -3.2246037023889499E-03
              -2.8676148341137139E-05
              -9.0415842473518318E-03
              -1.4367638539598541E-04
              -3.4637756731363723E-03
               4.5041511275098062E-03
               3.3381789079626693E-03
               1.1002442129813231E-03
               6.4059364319258025E-03
              -1.0998626535612229E-02
              -5.6172924968553387E-05
              -5.6034440686347688E-03
               7.0542292073478424E-03
               2.9146383239736561E-04
              -2.7849680815616217E-03
               2.8938868116192736E-03
               1.1055781575505769E-02
              -1.0431581310633951E-03
               2.2652626524297908E-03
              -1.1888450155326080E-02
              -5.3030659171949893E-03
               8.7534631380573871E-04
               1.3211558324803628E-02
               3.4971965167845524E-03
               2.0781280653504770E-03
              -4.3846194453849114E-03
               2.5348541939652957E-03
               3.2257004505549421E-03
              -2.3830134912361210E-03
              -7.3874590971527111E-03
               4.8734275649232909E-03
               1.8009440580812486E-03
              -6.2850873557233709E-03
              -1.2929913383515957E-03
              -7.3537023239415465E-04
              -1.3330644172532271E-03
              -1.8894229161983320E-03
              -6.4532570281694145E-04
               1.3873046695984065E-03
               2.0044331031229073E-02
              -5.3143393569682730E-03
              -1.3000332705210761E-02
               1.3797138056593380E-02
              -8.9543829916791298E-03
              -7.9178211961735880E-03
              -1.0315972480854671E-03
               2.4176127720127762E-04
               1.2699804723990500E-03
               1.4721583722587596E-02
               1.1512770921469357E-03
               3.8349376704543896E-03
              -5.5276024364548162E-03
              -3.7485544865177764E-03
              -4.3080404052635128E-03
              -3.4658185848511110E-03
               1.2168394997075554E-03
              -1.7765525079898870E-02
               9.1497763289362637E-03
               6.1058606638110481E-03
              -1.7316451354596869E-02
               1.0706895986715113E-02
               9.6681177808924778E-03
               8.0567473816267035E-04
               1.8148012319552358E-03
               9.3759253240025212E-03
              -1.1384716201223555E-02
               6.9630512357681962E-03
              -2.8809283273478082E-03
               1.5154145276681976E-03
              -1.5066320026281726E-03
               4.2335157373011266E-03
              -6.2530047066579495E-03
               2.9800754144055940E-03
               3.4827691150151902E-03
               8.2173764844388000E-03
              -6.5281833717043642E-03
               1.2390855491347061E-02
              -6.1754858541695299E-03
              -1.6495508958071802E-03
               2.3448266990328216E-03
               1.8603331212177477E-03
               8.2348687423125684E-03
               6.7592629836197345E-03
              -5.7596516151760813E-03
               5.8247627764299497E-03
               5.5824521137043696E-03
               1.0857085078604025E-02
              -1.3060099136196438E-03
              -1.9029090462138341E-03
              -2.7502162984533317E-03
              -5.1571525778915939E-03
               2.5592209039282656E-03
              -9.2997208330709256E-03
              -5.6574967180033856E-03
               1.0346372930492585E-02
              -1.2593783715493150E-03
               4.6817014051591449E-03
              -2.0593523513150699E-03
              -1.1557472444952770E-02
               3.2019853380790687E-03
               2.6025077084528138E-03
              -1.8178687631096810E-04
              -1.1122504496362019E-02
               3.9384074745296913E-03
              -2.0015683824608959E-03
               9.1672300676566669E-03
               5.0055438773749022E-03
              -3.0402714233725000E-03
              -5.7368709053482441E-03
               6.1017473850032708E-03
              -8.1742858895455205E-03
              -1.1707396074291776E-02
              -5.1758347680196520E-03
               1.4763916739909365E-02
               1.4949784981739588E-02
              -1.3016395497435843E-02
              -2.6199291431981521E-03
               1.7840731885566635E-03
              -9.0122621134226290E-03
               2.2875608046175346E-03
              -8.8217163543945556E-03
               9.7618251984993786E-04
               1.5515455843442855E-02
              -4.9191892302639251E-03
              -4.4824385332096197E-03
               5.1315634897191687E-04
               2.7792401835378777E-03
              -8.7552857176932927E-06
               1.4788496158050588E-02
              -7.6712162314846689E-03
              -4.1307397669597011E-03
              -1.8162103989106009E-03
               1.0818331867201263E-02
               6.5965050037678297E-03
               3.4967147614737054E-03
              -3.6970920098751627E-03
               2.1315881326323060E-03
              -6.4710312507353894E-03
               3.5650510381096449E-03
               1.6647223535914168E-03
               1.7276923654926086E-04
              -2.3327570313821959E-03
              -3.8001986595272447E-03
              -4.0290999944018122E-03
              -7.8862636653738109E-03
               1.0693187000539511E-03
               5.4687276115647759E-03
              -4.7608276496574880E-03
               5.9911595884171703E-03
              -3.3534947411114932E-03
               8.6981969205725158E-03
              -3.0969078309199998E-03
               4.1748523415218973E-03
               7.4965464567847888E-04
              -7.4583626955482577E-04
               5.6233330996119067E-03
               3.3053581844629202E-03
               3.7513718773564343E-03
              -2.0225803810437772E-03
              -1.0490137945614554E-02
              -1.1276402874958529E-03
               5.5672658379883680E-03
              -2.5750943635519082E-03
               3.3793034468617214E-04
               6.1706621730880599E-03
               2.7720849896694997E-03
              -8.9517433538899641E-04
              -2.1066677938109922E-03
               9.9788272248324053E-03
              -1.2933167521747588E-02
               2.9889806052780759E-03
               4.6949475219543451E-04
              -3.4873857518024432E-03
              -9.1447913397899264E-03
               1.8600443260951265E-03
               3.2441638975197664E-03
               4.4768065693026231E-03
               1.1194784989041208E-02
              -1.6201477107402582E-02
               4.3698262780148336E-03
               1.3789845628702231E-02
               3.9263672338078421E-03
              -3.4558895009024980E-03
               5.9810816122997379E-03
              -1.2639621059506315E-02
               1.1590524749649280E-02
              -1.8799257446114775E-03
              -8.6923096470382620E-03
               3.4173170340598335E-03
              -7.7818493876999602E-03
              -1.4315036530053457E-03
               2.7711790290518359E-03
               1.0876124420972102E-02
              -6.8754656634531924E-03
              -6.5632924945137113E-03
              -8.2449326698535164E-03
               1.0981183666252068E-02
               1.1363730556992083E-03
              -1.5118225294826451E-03
               2.8987256058735033E-03
               1.5696309997766350E-03
              -4.0629962714457964E-05
              -1.3134464814091235E-03
               2.8763169373239878E-03
               1.2047906285619495E-03
              -1.9466439941813241E-03
              -1.4990119916684429E-03
               5.8243545799755445E-03
              -3.8185528312160099E-03
              -2.6485156883338467E-03
               4.6733001174756785E-03
               1.1512917706361348E-03
              -8.0621209223717683E-03
               4.4043388841614167E-03
               2.4496422711937791E-04
               3.9324946644606878E-03
               1.3559240796151488E-03
               9.4932449529282030E-04
              -1.0294400632801799E-02
              -3.7679753223821832E-03
               9.9177309117293357E-03
              -9.3155666926211383E-03
               7.7734876765243217E-03
               5.7846823706781455E-03
               8.2047735092633379E-04
               3.3904285719092149E-03
              -2.6054297054452624E-03
              -5.1695540430079590E-03
               5.6444615187786779E-03
               4.8383210836599293E-03
              -3.9097177008154387E-03
              -3.3720539239993370E-03
              -4.2530384581468362E-03
               1.9661397839209813E-02
              -5.1315128667040006E-03
               6.1896900636684564E-02
         &END THERMOSTAT_ENERGY
         &RNG_INIT
Wiener process for Thermostat # 1        1 F T T   1.0570193072987602E-01        2554248455.0        3733268398.0        2096963647.0         915983833.0        1292997779.0         989563289.0             12345.0             12345.0             12345.0             12345.0             12345.0             12345.0             12345.0             12345.0             12345.0             12345.0             12345.0             12345.0
Wiener process for Thermostat # 2        1 F T T  -5.0729818522276993E-01         187792199.0        1332764939.0        1272087322.0         282682701.0         988697858.0        4086000388.0        3692455944.0        1366884236.0        2968912127.0         335948734.0        4161675175.0         475798818.0        3692455944.0        1366884236.0        2968912127.0         335948734.0        4161675175.0         475798818.0
Wiener process for Thermostat # 3        1 F T T   8.9774137220556466E-02        3755061031.0        1753083868.0        1351179932.0         343881147.0        3312142877.0        1244557929.0        1015873554.0        1310354410.0        2249465273.0         994084013.0        2912484720.0        3876682925.0        1015873554.0        1310354410.0        2249465273.0         994084013.0        2912484720.0        3876682925.0
Wiener process for Thermostat # 4        1 F T T   2.1447125495896904E-01        2430503636.0         902227617.0        3039217662.0         205693714.0        2375800914.0        4220709598.0        2338701263.0        1119171942.0        2570676563.0         317077452.0        3194180850.0         618832124.0        2338701263.0        1119171942.0        2570676563.0         317077452.0        3194180850.0         618832124.0
Wiener process for Thermostat # 5        1 F T T  -7.4974817695318574E-01        3949927612.0        4293465109.0         224208328.0         677588237.0        2173092809.0        2514687022.0        1597262096.0        3906379055.0        3312112953.0        1016013135.0        4099474108.0         275305423.0        1597262096.0        3906379055.0        3312112953.0        1016013135.0        4099474108.0         275305423.0
Wiener process for Thermostat # 6        1 F T T  -2.3195632299180402E+00        4147399821.0         968438491.0         174961265.0         382156541.0        3672303660.0        2385050302.0          97147054.0        3131372450.0         829345164.0        3691032523.0        3006063034.0        4259826321.0          97147054.0        3131372450.0         829345164.0        3691032523.0        3006063034.0        4259826321.0
Wiener process for Thermostat # 7        1 F T T  -8.3038096976097500E-03        3725962017.0        3124905816.0        1692649901.0        3685368087.0         990134651.0        3321809881.0         796079799.0        2105258207.0         955365076.0        2923159030.0        4116632677.0        3067683584.0         796079799.0        2105258207.0         955365076.0        2923159030.0        4116632677.0        3067683584.0
Wiener process for Thermostat # 8        1 F T T   7.2955713326517235E-01        1426374835.0        1022225665.0        3431852557.0        2945126969.0        1347790872.0        2047858768.0        3281794178.0        2616230133.0        1457051261.0        2762791137.0        2480527362.0        2282316169.0        3281794178.0        2616230133.0        1457051261.0        2762791137.0        2480527362.0        2282316169.0
Wiener process for Thermostat # 9        1 F T T  -8.3876742673612970E-01        3633457436.0         863053678.0         665967915.0         928783000.0        4027924725.0        3556250224.0        3777646647.0        1837464056.0        4204654757.0         664239048.0        4190510072.0        2959195122.0        3777646647.0        1837464056.0        4204654757.0         664239048.0        4190510072.0        2959195122.0
Wiener process for Thermostat # 10       1 F T T  -6.7138423863751628E-01        3282585865.0         909372753.0         488063086.0        2442536289.0         174422437.0         477575080.0        4215590817.0        3862461878.0        1087200967.0        1544910132.0         936383720.0        1611370123.0        4215590817.0        3862461878.0        1087200967.0        1544910132.0         936383720.0        1611370123.0
Wiener process for Thermostat # 11       1 F T T  -7.2169956836733329E-02        3039538231.0          25912629.0        1608189467.0        1823124278.0        2331127605.0        2449500504.0        1683636369.0         362165168.0         814316280.0         869382050.0         980203903.0        2062101717.0        1683636369.0         362165168.0         814316280.0         869382050.0         980203903.0        2062101717.0
Wiener process for Thermostat # 12       1 F T T  -6.7722400494670465E-01        2762226669.0        4262778377.0        2250707948.0        3120407528.0        3704866228.0        1185520965.0         272317999.0         166758548.0         310112982.0         201045826.0        1680231254.0         118290799.0         272317999.0         166758548.0         310112982.0         201045826.0        1680231254.0         118290799.0
Wiener process for Thermostat # 13       1 F T T  -7.3817531449270457E-01        3689403510.0         367299738.0        3636386471.0        1925893934.0        3355800516.0        3520562622.0        2245755202.0        1652682525.0        2865544364.0         721509566.0         209733568.0         592362218.0        2245755202.0        1652682525.0        2865544364.0         721509566.0         209733568.0         592362218.0